Cu N O                                  
   1.00000000000000     
    10.0912000000000006    0.0000000000000000    0.0000000000000000
     0.0000000000000000   10.0912000000000006    0.0000000000000000
     0.0000000000000000    0.0000000000000000   30.0000000000000000
   Cu   N    O 
    64     1     1
Selective dynamics
Direct
  0.1249334042209966  0.1249956809360029  0.4103797317400009   F   F   F
  0.1249333110690003  0.3749995386289982  0.4103822747750030   F   F   F
  0.1249338744819966  0.6250030897599999  0.4103798646410013   F   F   F
  0.1249323962359981  0.8749985523419994  0.4103765285389969   F   F   F
  0.3749314622059998  0.1249682702700028  0.4103221968760025   F   F   F
  0.3749280369790000  0.3749995493259988  0.4103210014430019   F   F   F
  0.3749315723149991  0.6250304834349976  0.4103223516160028   F   F   F
  0.3749373912620015  0.8749985651200021  0.4103310158130000   F   F   F
  0.6250700593460010  0.1249684442709977  0.4103222824900001   F   F   F
  0.6250743415629998  0.3749995084030004  0.4103206020360020   F   F   F
  0.6250700936089970  0.6250306633870011  0.4103221995439981   F   F   F
  0.6250637754939987  0.8749988897750001  0.4103309635160031   F   F   F
  0.8750690719109997  0.1249954390720021  0.4103794662109976   F   F   F
  0.8750708787310018  0.3749994954809992  0.4103816027599976   F   F   F
  0.8750695209550017  0.6250037580539995  0.4103793341050022   F   F   F
  0.8750689654659993  0.8749989116579968  0.4103766474249966   F   F   F
  0.9998360855414035  0.9998637298601736  0.4696382158889065   T   T   T
  0.9999547973950627  0.2500385653475306  0.4696372543966376   T   T   T
  0.9999560782953836  0.5000327959826762  0.4696324256423026   T   T   T
  0.9998332267292440  0.7502084409365608  0.4696410888224563   T   T   T
  0.2503679215650010  0.0000608593632450  0.4697596374460460   T   T   T
  0.2499178349831510  0.2497786116068781  0.4693925428202874   T   T   T
  0.2499170198185894  0.5003090306368918  0.4693960745483139   T   T   T
  0.2503682387501840  0.7500400872891149  0.4697545854802243   T   T   T
  0.5000014345709403  0.0000019963051301  0.4697115788859563   T   T   T
  0.5000893849750483  0.2497826818572833  0.4695504772647610   T   T   T
  0.5000889609653427  0.5003152687486221  0.4695498408159580   T   T   T
  0.4999994179042275  0.7501028493367059  0.4697163901655941   T   T   T
  0.7495774172349527  0.0001260269745842  0.4697771032362255   T   T   T
  0.7497434683726496  0.2500640527922258  0.4696518726927437   T   T   T
  0.7497483826445261  0.5000029018130761  0.4696556181377289   T   T   T
  0.7495744235541153  0.7499484714022699  0.4697715364337540   T   T   T
  0.1250881478909278  0.1248650783602727  0.5300948406891237   T   T   T
  0.1256263460082465  0.3751024642368463  0.5301802944941016   T   T   T
  0.1250843026649662  0.6253208548785310  0.5300955776386687   T   T   T
  0.1250702856175323  0.8750946577565628  0.5303193354356139   T   T   T
  0.3759967471102357  0.1267326591536602  0.5305391153864463   T   T   T
  0.3745851716977526  0.3751273531097539  0.5292682146014869   T   T   T
  0.3759686985128283  0.6235475584886672  0.5305312772952249   T   T   T
  0.3749174827898187  0.8751380872762482  0.5301917291874290   T   T   T
  0.6237030106833856  0.1263920571654040  0.5306572218984158   T   T   T
  0.6231284513919348  0.3751103691621864  0.5302279270560462   T   T   T
  0.6237253606460271  0.6238405561095703  0.5306471673240409   T   T   T
  0.6248116332990818  0.8751119510805196  0.5302505386437772   T   T   T
  0.8749109514311968  0.1248150102093106  0.5301051246582986   T   T   T
  0.8749155419159962  0.3750630857114956  0.5299975198235742   T   T   T
  0.8749203090989326  0.6253107146677976  0.5301037155576012   T   T   T
  0.8748300569877543  0.8750647538149536  0.5303724539322374   T   T   T
  0.9999583287952944  0.0002721929307086  0.5895653456057133   T   T   T
  0.9998882604534387  0.2501802430716324  0.5894030520733793   T   T   T
  0.9998964471921710  0.4999388441185530  0.5894044485466026   T   T   T
  0.9999521929127511  0.7498455370379986  0.5895681075253023   T   T   T
  0.2501482117406937  0.9999332267596586  0.5895139248567460   T   T   T
  0.2484470612635832  0.2490186481138892  0.5893232695575037   T   T   T
  0.2484632857661282  0.5011837832016468  0.5893242312007985   T   T   T
  0.2501450743965563  0.7502667823674400  0.5895146762480223   T   T   T
  0.4998455598631324  0.9989883161462103  0.5897091507848344   T   T   T
  0.5015711992307601  0.2452688933035674  0.5924777229716156   T   T   T
  0.5015750595671662  0.5051938111242933  0.5924510917485435   T   T   T
  0.4998390813532652  0.7513371639089357  0.5897073389686653   T   T   T
  0.7497022555140447  0.0000838931530254  0.5895592411602593   T   T   T
  0.7513105587531541  0.2497960534098809  0.5891224627476817   T   T   T
  0.7513119524333050  0.5003307112758932  0.5891154999191173   T   T   T
  0.7496899490451767  0.7500348429823447  0.5895577176232720   T   T   T
  0.4636552369341445  0.3752688734717111  0.6380952101047228   T   T   T
  0.4625902910963475  0.3753460682041947  0.6784362068194412   T   T   T
 
  0.00000000E+00  0.00000000E+00  0.00000000E+00
  0.00000000E+00  0.00000000E+00  0.00000000E+00
  0.00000000E+00  0.00000000E+00  0.00000000E+00
  0.00000000E+00  0.00000000E+00  0.00000000E+00
  0.00000000E+00  0.00000000E+00  0.00000000E+00
  0.00000000E+00  0.00000000E+00  0.00000000E+00
  0.00000000E+00  0.00000000E+00  0.00000000E+00
  0.00000000E+00  0.00000000E+00  0.00000000E+00
  0.00000000E+00  0.00000000E+00  0.00000000E+00
  0.00000000E+00  0.00000000E+00  0.00000000E+00
  0.00000000E+00  0.00000000E+00  0.00000000E+00
  0.00000000E+00  0.00000000E+00  0.00000000E+00
  0.00000000E+00  0.00000000E+00  0.00000000E+00
  0.00000000E+00  0.00000000E+00  0.00000000E+00
  0.00000000E+00  0.00000000E+00  0.00000000E+00
  0.00000000E+00  0.00000000E+00  0.00000000E+00
  0.00000000E+00  0.00000000E+00  0.00000000E+00
  0.00000000E+00  0.00000000E+00  0.00000000E+00
  0.00000000E+00  0.00000000E+00  0.00000000E+00
  0.00000000E+00  0.00000000E+00  0.00000000E+00
  0.00000000E+00  0.00000000E+00  0.00000000E+00
  0.00000000E+00  0.00000000E+00  0.00000000E+00
  0.00000000E+00  0.00000000E+00  0.00000000E+00
  0.00000000E+00  0.00000000E+00  0.00000000E+00
  0.00000000E+00  0.00000000E+00  0.00000000E+00
  0.00000000E+00  0.00000000E+00  0.00000000E+00
  0.00000000E+00  0.00000000E+00  0.00000000E+00
  0.00000000E+00  0.00000000E+00  0.00000000E+00
  0.00000000E+00  0.00000000E+00  0.00000000E+00
  0.00000000E+00  0.00000000E+00  0.00000000E+00
  0.00000000E+00  0.00000000E+00  0.00000000E+00
  0.00000000E+00  0.00000000E+00  0.00000000E+00
  0.00000000E+00  0.00000000E+00  0.00000000E+00
  0.00000000E+00  0.00000000E+00  0.00000000E+00
  0.00000000E+00  0.00000000E+00  0.00000000E+00
  0.00000000E+00  0.00000000E+00  0.00000000E+00
  0.00000000E+00  0.00000000E+00  0.00000000E+00
  0.00000000E+00  0.00000000E+00  0.00000000E+00
  0.00000000E+00  0.00000000E+00  0.00000000E+00
  0.00000000E+00  0.00000000E+00  0.00000000E+00
  0.00000000E+00  0.00000000E+00  0.00000000E+00
  0.00000000E+00  0.00000000E+00  0.00000000E+00
  0.00000000E+00  0.00000000E+00  0.00000000E+00
  0.00000000E+00  0.00000000E+00  0.00000000E+00
  0.00000000E+00  0.00000000E+00  0.00000000E+00
  0.00000000E+00  0.00000000E+00  0.00000000E+00
  0.00000000E+00  0.00000000E+00  0.00000000E+00
  0.00000000E+00  0.00000000E+00  0.00000000E+00
  0.00000000E+00  0.00000000E+00  0.00000000E+00
  0.00000000E+00  0.00000000E+00  0.00000000E+00
  0.00000000E+00  0.00000000E+00  0.00000000E+00
  0.00000000E+00  0.00000000E+00  0.00000000E+00
  0.00000000E+00  0.00000000E+00  0.00000000E+00
  0.00000000E+00  0.00000000E+00  0.00000000E+00
  0.00000000E+00  0.00000000E+00  0.00000000E+00
  0.00000000E+00  0.00000000E+00  0.00000000E+00
  0.00000000E+00  0.00000000E+00  0.00000000E+00
  0.00000000E+00  0.00000000E+00  0.00000000E+00
  0.00000000E+00  0.00000000E+00  0.00000000E+00
  0.00000000E+00  0.00000000E+00  0.00000000E+00
  0.00000000E+00  0.00000000E+00  0.00000000E+00
  0.00000000E+00  0.00000000E+00  0.00000000E+00
  0.00000000E+00  0.00000000E+00  0.00000000E+00
  0.00000000E+00  0.00000000E+00  0.00000000E+00
  0.00000000E+00  0.00000000E+00  0.00000000E+00
  0.00000000E+00  0.00000000E+00  0.00000000E+00
