N O Pd                                  
   1.00000000000000     
    10.9819999999999993    0.0000000000000000    0.0000000000000000
     0.0000000000000000   10.9819999999999993    0.0000000000000000
     0.0000000000000000    0.0000000000000000   30.0000000000000000
   N    O    Pd
     9     8    64
Selective dynamics
Direct
  0.4202934044074789  0.4106614886036226  0.6424112668345804   T   T   T
  0.3962323536162867  0.9275271313672001  0.6433133903367626   T   T   T
  0.7537291551768917  0.3720486185200930  0.6497823819416689   T   T   T
  0.9061676371072040  0.9132126997680590  0.6437235781792766   T   T   T
  0.5957873594987588  0.6743668866490149  0.6434557842472046   T   T   T
  0.6592605348213856  0.0907717998863403  0.6452777896815223   T   T   T
  0.1210012192465598  0.7274796352297876  0.6489241967716954   T   T   T
  0.1147726031940057  0.3080412432596291  0.6481656073349812   T   T   T
  0.1190678361225074  0.4295143773926725  0.6462376718129599   T   T   T
  0.4230578443299020  0.4020882628710741  0.6826120729887325   T   T   T
  0.3877699409195052  0.9273793862506302  0.6834288569814017   T   T   T
  0.7378998325349344  0.3824957672052363  0.6888674977969191   T   T   T
  0.9137933222800710  0.9241546690259990  0.6836642664540294   T   T   T
  0.6018377822825516  0.6753183516801423  0.6837016592848461   T   T   T
  0.6590838958026708  0.0866891207965070  0.6854684690783132   T   T   T
  0.1311217316445548  0.7428007381356156  0.6880449313647594   T   T   T
  0.1181245928058642  0.2498656677011544  0.6841629450137384   T   T   T
  0.1249995473439967  0.1249995473439967  0.4029322681199972   F   F   F
  0.1249995473439967  0.3749986420319971  0.4029322681199972   F   F   F
  0.1249995473439967  0.6249977367199975  0.4029322681199972   F   F   F
  0.1249995473439967  0.8749968314079979  0.4029322681199972   F   F   F
  0.3749986420319971  0.1249995473439967  0.4029322681199972   F   F   F
  0.3749986420319971  0.3749986420319971  0.4029322681199972   F   F   F
  0.3749986420319971  0.6249977367199975  0.4029322681199972   F   F   F
  0.3749986420319971  0.8749968314079979  0.4029322681199972   F   F   F
  0.6249977367199975  0.1249995473439967  0.4029322681199972   F   F   F
  0.6249977367199975  0.3749986420319971  0.4029322681199972   F   F   F
  0.6249977367199975  0.6249977367199975  0.4029322681199972   F   F   F
  0.6249977367199975  0.8749968314079979  0.4029322681199972   F   F   F
  0.8749968314079979  0.1249995473439967  0.4029322681199972   F   F   F
  0.8749968314079979  0.3749986420319971  0.4029322681199972   F   F   F
  0.8749968314079979  0.6249977367199975  0.4029322681199972   F   F   F
  0.8749968314079979  0.8749968314079979  0.4029322681199972   F   F   F
  0.9989369619250723  0.9979797770082064  0.4684431893923941   T   T   T
  0.9998954354023895  0.2482784612650433  0.4680126662943130   T   T   T
  0.9998552405134634  0.4998429252734028  0.4683487041768257   T   T   T
  0.9987747493453406  0.7484615871422222  0.4683421206873701   T   T   T
  0.2508861248219342  0.0000110026463917  0.4678466826164225   T   T   T
  0.2496971418602640  0.2495730894629189  0.4678739304899037   T   T   T
  0.2501089007562854  0.5012381053165846  0.4679786941720914   T   T   T
  0.2491694336735974  0.7497338084851020  0.4681387359044195   T   T   T
  0.5007774536824607  0.0021957530553980  0.4684866595633642   T   T   T
  0.5000601335411237  0.2515427472949285  0.4681641392187102   T   T   T
  0.5001924160145320  0.5027291663623946  0.4678021968026150   T   T   T
  0.4993751034970066  0.7521649083183614  0.4683315060315213   T   T   T
  0.7499433257853239  0.9998478545554108  0.4685729662737372   T   T   T
  0.7496608441329693  0.2493096781177115  0.4677974526743374   T   T   T
  0.7510164673874817  0.5000848411444088  0.4680459630700106   T   T   T
  0.7504763757833978  0.7498611041403447  0.4682746844309691   T   T   T
  0.1257880899776614  0.1193286718855595  0.5332700659165516   T   T   T
  0.1260393974677811  0.3738419953944793  0.5324418289902827   T   T   T
  0.1243994637260581  0.6242440318565017  0.5337981595575750   T   T   T
  0.1249513696012811  0.8735280211549771  0.5332521327744479   T   T   T
  0.3760288762514806  0.1288696777789660  0.5341396234282778   T   T   T
  0.3746882608557903  0.3810598172485694  0.5320769201786779   T   T   T
  0.3732781348092739  0.6283961433471583  0.5349204556377606   T   T   T
  0.3748428552820015  0.8769368393722411  0.5332563971692157   T   T   T
  0.6260066946118541  0.1293994074723901  0.5345706456801871   T   T   T
  0.6249875922800812  0.3780187001027644  0.5334050933833704   T   T   T
  0.6249613231547739  0.6270447808591524  0.5326019269381723   T   T   T
  0.6242869825523969  0.8786136695892409  0.5338101127153497   T   T   T
  0.8737921418149329  0.1241784951315537  0.5341484512630520   T   T   T
  0.8727222144115209  0.3717011631019945  0.5326606106389403   T   T   T
  0.8757021290896572  0.6218184984880935  0.5363156517151605   T   T   T
  0.8732054756367862  0.8696044045467652  0.5347627333283113   T   T   T
  0.0106276038629252  0.0042393972116230  0.6005296770627927   T   T   T
  0.9914024231020210  0.2487047658412681  0.5987764158347179   T   T   T
  0.0105093990707053  0.4985118520343232  0.5997252107938180   T   T   T
  0.9832786487420755  0.7559534070680408  0.6063278844929207   T   T   T
  0.2617500303465434  0.9895632523839337  0.6022475434313506   T   T   T
  0.2415177431052047  0.2388355687185975  0.5990221994169278   T   T   T
  0.2681409199151744  0.4845153061062575  0.6075043453505851   T   T   T
  0.2407718623000707  0.7393426399057026  0.6013937680961116   T   T   T
  0.5143415179268783  0.0261179815903966  0.6041572763770537   T   T   T
  0.4853553992567127  0.2747022163920830  0.6014544642620945   T   T   T
  0.5165511341258630  0.5272130588015057  0.6028766890335860   T   T   T
  0.4828275299429654  0.7765604757512411  0.6043796796027304   T   T   T
  0.7616943815586483  0.9853439856146624  0.6033315749327212   T   T   T
  0.7353571745628845  0.2373572138927913  0.6060272338588591   T   T   T
  0.7629138850617789  0.4915801020567804  0.6022787547336570   T   T   T
  0.7323927784320994  0.7371342358411328  0.6026441416517977   T   T   T
 
  0.00000000E+00  0.00000000E+00  0.00000000E+00
  0.00000000E+00  0.00000000E+00  0.00000000E+00
  0.00000000E+00  0.00000000E+00  0.00000000E+00
  0.00000000E+00  0.00000000E+00  0.00000000E+00
  0.00000000E+00  0.00000000E+00  0.00000000E+00
  0.00000000E+00  0.00000000E+00  0.00000000E+00
  0.00000000E+00  0.00000000E+00  0.00000000E+00
  0.00000000E+00  0.00000000E+00  0.00000000E+00
  0.00000000E+00  0.00000000E+00  0.00000000E+00
  0.00000000E+00  0.00000000E+00  0.00000000E+00
  0.00000000E+00  0.00000000E+00  0.00000000E+00
  0.00000000E+00  0.00000000E+00  0.00000000E+00
  0.00000000E+00  0.00000000E+00  0.00000000E+00
  0.00000000E+00  0.00000000E+00  0.00000000E+00
  0.00000000E+00  0.00000000E+00  0.00000000E+00
  0.00000000E+00  0.00000000E+00  0.00000000E+00
  0.00000000E+00  0.00000000E+00  0.00000000E+00
  0.00000000E+00  0.00000000E+00  0.00000000E+00
  0.00000000E+00  0.00000000E+00  0.00000000E+00
  0.00000000E+00  0.00000000E+00  0.00000000E+00
  0.00000000E+00  0.00000000E+00  0.00000000E+00
  0.00000000E+00  0.00000000E+00  0.00000000E+00
  0.00000000E+00  0.00000000E+00  0.00000000E+00
  0.00000000E+00  0.00000000E+00  0.00000000E+00
  0.00000000E+00  0.00000000E+00  0.00000000E+00
  0.00000000E+00  0.00000000E+00  0.00000000E+00
  0.00000000E+00  0.00000000E+00  0.00000000E+00
  0.00000000E+00  0.00000000E+00  0.00000000E+00
  0.00000000E+00  0.00000000E+00  0.00000000E+00
  0.00000000E+00  0.00000000E+00  0.00000000E+00
  0.00000000E+00  0.00000000E+00  0.00000000E+00
  0.00000000E+00  0.00000000E+00  0.00000000E+00
  0.00000000E+00  0.00000000E+00  0.00000000E+00
  0.00000000E+00  0.00000000E+00  0.00000000E+00
  0.00000000E+00  0.00000000E+00  0.00000000E+00
  0.00000000E+00  0.00000000E+00  0.00000000E+00
  0.00000000E+00  0.00000000E+00  0.00000000E+00
  0.00000000E+00  0.00000000E+00  0.00000000E+00
  0.00000000E+00  0.00000000E+00  0.00000000E+00
  0.00000000E+00  0.00000000E+00  0.00000000E+00
  0.00000000E+00  0.00000000E+00  0.00000000E+00
  0.00000000E+00  0.00000000E+00  0.00000000E+00
  0.00000000E+00  0.00000000E+00  0.00000000E+00
  0.00000000E+00  0.00000000E+00  0.00000000E+00
  0.00000000E+00  0.00000000E+00  0.00000000E+00
  0.00000000E+00  0.00000000E+00  0.00000000E+00
  0.00000000E+00  0.00000000E+00  0.00000000E+00
  0.00000000E+00  0.00000000E+00  0.00000000E+00
  0.00000000E+00  0.00000000E+00  0.00000000E+00
  0.00000000E+00  0.00000000E+00  0.00000000E+00
  0.00000000E+00  0.00000000E+00  0.00000000E+00
  0.00000000E+00  0.00000000E+00  0.00000000E+00
  0.00000000E+00  0.00000000E+00  0.00000000E+00
  0.00000000E+00  0.00000000E+00  0.00000000E+00
  0.00000000E+00  0.00000000E+00  0.00000000E+00
  0.00000000E+00  0.00000000E+00  0.00000000E+00
  0.00000000E+00  0.00000000E+00  0.00000000E+00
  0.00000000E+00  0.00000000E+00  0.00000000E+00
  0.00000000E+00  0.00000000E+00  0.00000000E+00
  0.00000000E+00  0.00000000E+00  0.00000000E+00
  0.00000000E+00  0.00000000E+00  0.00000000E+00
  0.00000000E+00  0.00000000E+00  0.00000000E+00
  0.00000000E+00  0.00000000E+00  0.00000000E+00
  0.00000000E+00  0.00000000E+00  0.00000000E+00
  0.00000000E+00  0.00000000E+00  0.00000000E+00
  0.00000000E+00  0.00000000E+00  0.00000000E+00
  0.00000000E+00  0.00000000E+00  0.00000000E+00
  0.00000000E+00  0.00000000E+00  0.00000000E+00
  0.00000000E+00  0.00000000E+00  0.00000000E+00
  0.00000000E+00  0.00000000E+00  0.00000000E+00
  0.00000000E+00  0.00000000E+00  0.00000000E+00
  0.00000000E+00  0.00000000E+00  0.00000000E+00
  0.00000000E+00  0.00000000E+00  0.00000000E+00
  0.00000000E+00  0.00000000E+00  0.00000000E+00
  0.00000000E+00  0.00000000E+00  0.00000000E+00
  0.00000000E+00  0.00000000E+00  0.00000000E+00
  0.00000000E+00  0.00000000E+00  0.00000000E+00
  0.00000000E+00  0.00000000E+00  0.00000000E+00
  0.00000000E+00  0.00000000E+00  0.00000000E+00
  0.00000000E+00  0.00000000E+00  0.00000000E+00
  0.00000000E+00  0.00000000E+00  0.00000000E+00
