Pd N O
1.0
 10.982000000000   0.000000000000   0.000000000000
  0.000000000000  10.982000000000   0.000000000000
  0.000000000000   0.000000000000  30.000000000000
Pd N O
 64   2   1
Selective dynamics
Direct
  0.124958547134   0.124996349865   0.402806710073  F F F
  0.124947532382   0.374991867586   0.402794716607  F F F
  0.124945629560   0.625034149967   0.402784450894  F F F
  0.124958107478   0.875033180869   0.402801162136  F F F
  0.375021555637   0.124993439046   0.402801160209  F F F
  0.375026612222   0.374993965880   0.402787895607  F F F
  0.375031588900   0.625035225945   0.402782424898  F F F
  0.375026763470   0.875030151467   0.402798528119  F F F
  0.625034049952   0.125001036359   0.402828395723  F F F
  0.625036703847   0.374999767848   0.402824009428  F F F
  0.625037691552   0.625017252561   0.402821100306  F F F
  0.625033407084   0.875017382080   0.402826105463  F F F
  0.874966892354   0.125005363563   0.402835014054  F F F
  0.874959405625   0.374997901677   0.402830700971  F F F
  0.874952671215   0.625014526506   0.402824564187  F F F
  0.874959469618   0.875021567466   0.402828546684  F F F
  0.000200799842   0.001433910796   0.468237879043  F F F
  0.001227157196   0.250876030884   0.468320674981  F F F
  0.000189486871   0.499960702340   0.468255362006  F F F
  0.999333524481   0.750204679047   0.467981927032  F F F
  0.249650578046   0.999661123281   0.467891540789  F F F
  0.249760802810   0.250060111327   0.468187884246  F F F
  0.248878540060   0.498830363452   0.468167491433  F F F
  0.249365990404   0.748440736553   0.468029032803  F F F
  0.500215015489   0.999362900634   0.467733635251  F F F
  0.500112995603   0.249673790312   0.467748451489  F F F
  0.498663487678   0.500021281578   0.467894012381  F F F
  0.499210717318   0.749448519090   0.467744001749  F F F
  0.750717045242   0.000545731751   0.467762570744  F F F
  0.751453903116   0.250153327834   0.467870742276  F F F
  0.750123352201   0.500604131942   0.467863317293  F F F
  0.749374781430   0.750692276761   0.467530260186  F F F
  0.126040962899   0.126507998044   0.534151441578  F F F
  0.126483867085   0.375108576849   0.534721155440  F F F
  0.123542017168   0.623673828820   0.533759304930  F F F
  0.124507955915   0.874826375691   0.532587526343  F F F
  0.375156388295   0.123852794290   0.532397620406  F F F
  0.374512140728   0.373982832784   0.533419875558  F F F
  0.371466603674   0.621696645688   0.533750558487  F F F
  0.374901583465   0.872867936940   0.532375087171  F F F
  0.626589444551   0.124439773844   0.532126838651  F F F
  0.625207079230   0.375128741507   0.532090022476  F F F
  0.623129131480   0.625431167802   0.532255616640  F F F
  0.625144254820   0.874826176085   0.532347222233  F F F
  0.878117559588   0.127365187813   0.533890121477  F F F
  0.875743534748   0.375762111104   0.532926731939  F F F
  0.874496215416   0.626061328245   0.533056828782  F F F
  0.875034776487   0.876522664711   0.532834599729  F F F
  0.000719479714   0.001629532070   0.598709716985  F F F
  0.002998075978   0.250558607653   0.602529011324  F F F
  0.992488171948   0.509014073829   0.600219937534  F F F
  0.998579842178   0.753605563965   0.598424968541  F F F
  0.251377536212   0.993427894309   0.597907511853  F F F
  0.261316551490   0.236478757995   0.600137098901  F F F
  0.250802550653   0.499365628275   0.603198984937  F F F
  0.249285130700   0.748943462132   0.598303257644  F F F
  0.501079127088   0.998521815944   0.597473337397  F F F
  0.505427358791   0.248493231661   0.597188801962  F F F
  0.499687642507   0.498851497321   0.597855606559  F F F
  0.499363254360   0.749398542384   0.597773400685  F F F
  0.749921048092   0.000276235085   0.597923624354  F F F
  0.750625098761   0.250877402383   0.597637609160  F F F
  0.745339202243   0.501245383759   0.597450181595  F F F
  0.748150410527   0.751648734386   0.597837560816  F F F
  0.196797958777   0.414012395123   0.659235447324  T T T
  0.029789476177   0.385135030602   0.640521200351  T T T
  0.243797125553   0.314428358764   0.666088397310  T T T
