Cu N O H                                
   1.00000000000000     
    10.0912000000000006    0.0000000000000000    0.0000000000000000
     0.0000000000000000   10.0912000000000006    0.0000000000000000
     0.0000000000000000    0.0000000000000000   30.0000000000000000
   Cu   N    O    H 
    64     1     1     1
Selective dynamics
Direct
  0.1249998119670011  0.1249998119670011  0.4104769008810010   F   F   F
  0.1249998119670011  0.3749994359000013  0.4104769008810010   F   F   F
  0.1249998119670011  0.6249990598330015  0.4104769008810010   F   F   F
  0.1249998119670011  0.8749986837660018  0.4104769008810010   F   F   F
  0.3749994359000013  0.1249998119670011  0.4104769008810010   F   F   F
  0.3749994359000013  0.3749994359000013  0.4104769008810010   F   F   F
  0.3749994359000013  0.6249990598330015  0.4104769008810010   F   F   F
  0.3749994359000013  0.8749986837660018  0.4104769008810010   F   F   F
  0.6249990598330015  0.1249998119670011  0.4104769008810010   F   F   F
  0.6249990598330015  0.3749994359000013  0.4104769008810010   F   F   F
  0.6249990598330015  0.6249990598330015  0.4104769008810010   F   F   F
  0.6249990598330015  0.8749986837660018  0.4104769008810010   F   F   F
  0.8749986837660018  0.1249998119670011  0.4104769008810010   F   F   F
  0.8749986837660018  0.3749994359000013  0.4104769008810010   F   F   F
  0.8749986837660018  0.6249990598330015  0.4104769008810010   F   F   F
  0.8749986837660018  0.8749986837660018  0.4104769008810010   F   F   F
  0.9996673944739687  0.9999526168875246  0.4698540706759573   T   T   T
  0.9993835103444111  0.2495718705557898  0.4697712873872749   T   T   T
  0.9995064087210014  0.5001367303229580  0.4697689104746462   T   T   T
  0.9997888308515120  0.7497962942267689  0.4698429378958190   T   T   T
  0.2498435042499115  0.0001335029657246  0.4698801695540083   T   T   T
  0.2495281548697888  0.2486667531783432  0.4692151690006051   T   T   T
  0.2496334260821132  0.5012611289915574  0.4692070276539188   T   T   T
  0.2499827273402155  0.7498533844551600  0.4698659821071605   T   T   T
  0.4996260191092847  0.0001759530444450  0.4699915038021431   T   T   T
  0.5000932093817885  0.2493772928034822  0.4695060390818527   T   T   T
  0.5002238212556512  0.5007103474632106  0.4695004501961137   T   T   T
  0.4997621163351683  0.7499629155631586  0.4699889799325520   T   T   T
  0.7497772549449520  0.0003717320791706  0.4700541971523474   T   T   T
  0.7492371864034991  0.2498897852895108  0.4698285747533935   T   T   T
  0.7493565308226775  0.4999805327036657  0.4698260877533882   T   T   T
  0.7498913151876588  0.7495400756242998  0.4700372649703558   T   T   T
  0.1250984026314342  0.1257902152278261  0.5306796909230567   T   T   T
  0.1266421508154078  0.3748033126572028  0.5286387880073889   T   T   T
  0.1255206655392607  0.6238946131028807  0.5306461094876750   T   T   T
  0.1248253318255364  0.8748521463074707  0.5303394158753818   T   T   T
  0.3737312191266526  0.1277689647733876  0.5311395800152248   T   T   T
  0.3734876995335451  0.3750746912936208  0.5275790113316371   T   T   T
  0.3741896904387790  0.6225070162186300  0.5310832985856884   T   T   T
  0.3745457012221881  0.8751373012559973  0.5301910972386922   T   T   T
  0.6231569362144771  0.1261621739352256  0.5308468746283556   T   T   T
  0.6221877901557098  0.3750461361802541  0.5305974861703479   T   T   T
  0.6236208580271995  0.6239676423627926  0.5308276222425392   T   T   T
  0.6246496778205730  0.8750610242055666  0.5305265139240593   T   T   T
  0.8753078273290958  0.1261606065383604  0.5308811733849326   T   T   T
  0.8741409172163966  0.3747793211406424  0.5298053322981644   T   T   T
  0.8756723855804329  0.6234471178348923  0.5308546602535419   T   T   T
  0.8747184731455234  0.8747869311025229  0.5304595566116387   T   T   T
  0.9999385695978712  0.0003550478486983  0.5895078455366736   T   T   T
  0.9996883968854304  0.2511744794210326  0.5906444471553215   T   T   T
  0.0001012720707196  0.4985568049124446  0.5905781547782798   T   T   T
  0.0001434530619001  0.7492078457610828  0.5894966184368493   T   T   T
  0.2495551074436734  0.0000898565822866  0.5895548873517824   T   T   T
  0.2484111775984925  0.2503672198508194  0.5920368175830767   T   T   T
  0.2489060394729349  0.4998534635976454  0.5919497060343206   T   T   T
  0.2497538934140920  0.7500474615179001  0.5895217350228624   T   T   T
  0.4992936231710258  0.9997449014647080  0.5895919644070066   T   T   T
  0.5001930597743831  0.2489432325453744  0.5919361595359199   T   T   T
  0.5007433692428201  0.5013363680317947  0.5918519620836540   T   T   T
  0.4994862567600216  0.7504714507342225  0.5895646510696249   T   T   T
  0.7496838268349696  0.0001613102909133  0.5895781144417388   T   T   T
  0.7493427505274075  0.2505373017341617  0.5894173390416726   T   T   T
  0.7497952255880528  0.4993449506471563  0.5894163002696197   T   T   T
  0.7498709557412372  0.7497172110496509  0.5895953931207180   T   T   T
  0.3891920340594110  0.3757392235074145  0.6295991076355929   T   T   T
  0.3825039401722682  0.3762834295475642  0.6707996612475977   T   T   T
  0.1039943942745154  0.3748664740104680  0.6127366411647296   T   T   T
 
  0.00000000E+00  0.00000000E+00  0.00000000E+00
  0.00000000E+00  0.00000000E+00  0.00000000E+00
  0.00000000E+00  0.00000000E+00  0.00000000E+00
  0.00000000E+00  0.00000000E+00  0.00000000E+00
  0.00000000E+00  0.00000000E+00  0.00000000E+00
  0.00000000E+00  0.00000000E+00  0.00000000E+00
  0.00000000E+00  0.00000000E+00  0.00000000E+00
  0.00000000E+00  0.00000000E+00  0.00000000E+00
  0.00000000E+00  0.00000000E+00  0.00000000E+00
  0.00000000E+00  0.00000000E+00  0.00000000E+00
  0.00000000E+00  0.00000000E+00  0.00000000E+00
  0.00000000E+00  0.00000000E+00  0.00000000E+00
  0.00000000E+00  0.00000000E+00  0.00000000E+00
  0.00000000E+00  0.00000000E+00  0.00000000E+00
  0.00000000E+00  0.00000000E+00  0.00000000E+00
  0.00000000E+00  0.00000000E+00  0.00000000E+00
  0.00000000E+00  0.00000000E+00  0.00000000E+00
  0.00000000E+00  0.00000000E+00  0.00000000E+00
  0.00000000E+00  0.00000000E+00  0.00000000E+00
  0.00000000E+00  0.00000000E+00  0.00000000E+00
  0.00000000E+00  0.00000000E+00  0.00000000E+00
  0.00000000E+00  0.00000000E+00  0.00000000E+00
  0.00000000E+00  0.00000000E+00  0.00000000E+00
  0.00000000E+00  0.00000000E+00  0.00000000E+00
  0.00000000E+00  0.00000000E+00  0.00000000E+00
  0.00000000E+00  0.00000000E+00  0.00000000E+00
  0.00000000E+00  0.00000000E+00  0.00000000E+00
  0.00000000E+00  0.00000000E+00  0.00000000E+00
  0.00000000E+00  0.00000000E+00  0.00000000E+00
  0.00000000E+00  0.00000000E+00  0.00000000E+00
  0.00000000E+00  0.00000000E+00  0.00000000E+00
  0.00000000E+00  0.00000000E+00  0.00000000E+00
  0.00000000E+00  0.00000000E+00  0.00000000E+00
  0.00000000E+00  0.00000000E+00  0.00000000E+00
  0.00000000E+00  0.00000000E+00  0.00000000E+00
  0.00000000E+00  0.00000000E+00  0.00000000E+00
  0.00000000E+00  0.00000000E+00  0.00000000E+00
  0.00000000E+00  0.00000000E+00  0.00000000E+00
  0.00000000E+00  0.00000000E+00  0.00000000E+00
  0.00000000E+00  0.00000000E+00  0.00000000E+00
  0.00000000E+00  0.00000000E+00  0.00000000E+00
  0.00000000E+00  0.00000000E+00  0.00000000E+00
  0.00000000E+00  0.00000000E+00  0.00000000E+00
  0.00000000E+00  0.00000000E+00  0.00000000E+00
  0.00000000E+00  0.00000000E+00  0.00000000E+00
  0.00000000E+00  0.00000000E+00  0.00000000E+00
  0.00000000E+00  0.00000000E+00  0.00000000E+00
  0.00000000E+00  0.00000000E+00  0.00000000E+00
  0.00000000E+00  0.00000000E+00  0.00000000E+00
  0.00000000E+00  0.00000000E+00  0.00000000E+00
  0.00000000E+00  0.00000000E+00  0.00000000E+00
  0.00000000E+00  0.00000000E+00  0.00000000E+00
  0.00000000E+00  0.00000000E+00  0.00000000E+00
  0.00000000E+00  0.00000000E+00  0.00000000E+00
  0.00000000E+00  0.00000000E+00  0.00000000E+00
  0.00000000E+00  0.00000000E+00  0.00000000E+00
  0.00000000E+00  0.00000000E+00  0.00000000E+00
  0.00000000E+00  0.00000000E+00  0.00000000E+00
  0.00000000E+00  0.00000000E+00  0.00000000E+00
  0.00000000E+00  0.00000000E+00  0.00000000E+00
  0.00000000E+00  0.00000000E+00  0.00000000E+00
  0.00000000E+00  0.00000000E+00  0.00000000E+00
  0.00000000E+00  0.00000000E+00  0.00000000E+00
  0.00000000E+00  0.00000000E+00  0.00000000E+00
  0.00000000E+00  0.00000000E+00  0.00000000E+00
  0.00000000E+00  0.00000000E+00  0.00000000E+00
  0.00000000E+00  0.00000000E+00  0.00000000E+00
