N O Pd                                  
   1.00000000000000     
    10.9819999999999993    0.0000000000000000    0.0000000000000000
     0.0000000000000000   10.9819999999999993    0.0000000000000000
     0.0000000000000000    0.0000000000000000   30.0000000000000000
   N    O    Pd
    11    10    64
Selective dynamics
Direct
  0.3650452718262613  0.2752037500505295  0.6398890489019493   T   T   T
  0.3735977096185721  0.0047899807507150  0.6506356715382609   T   T   T
  0.3146104459359620  0.4379195784508525  0.6639228830722956   T   T   T
  0.7449558421128089  0.3779967560946318  0.6508997186151930   T   T   T
  0.6533828622060582  0.0949320085972687  0.6448641260947454   T   T   T
  0.6496400892339480  0.6538509420750316  0.6428950410024257   T   T   T
  0.0072744071044468  0.3748970380904026  0.6508580998959488   T   T   T
  0.0925382230238867  0.0907825128423738  0.6449055570162230   T   T   T
  0.0952055783739709  0.6561110819040223  0.6445624065579239   T   T   T
  0.8722345622638912  0.8731941447514586  0.6406358796252505   T   T   T
  0.3751587088468540  0.7516419491229556  0.6494431976387744   T   T   T
  0.3732263310625328  0.0173375569060141  0.6899985084767266   T   T   T
  0.3961294068035670  0.4848124388035089  0.6836262900541783   T   T   T
  0.7137183502351974  0.3807240798480009  0.6889599759500555   T   T   T
  0.6593522635232816  0.0882451591276379  0.6849051897857450   T   T   T
  0.6523778708156556  0.6580517295613646  0.6830521863242112   T   T   T
  0.0329285522687073  0.3746317726456709  0.6894631883950666   T   T   T
  0.0864876508965438  0.0845186485467977  0.6849228892223991   T   T   T
  0.0894467112664046  0.6629743051245498  0.6846234867764380   T   T   T
  0.8718602272822977  0.8725991392237518  0.6809735988135586   T   T   T
  0.3770785948341810  0.7361415694930216  0.6887500348669562   T   T   T
  0.1249916504229986  0.1249833499890016  0.4026965479620017   F   F   F
  0.1249702307489997  0.3749519508809982  0.4026740253540027   F   F   F
  0.1249923610839971  0.6250075772260004  0.4026666559740022   F   F   F
  0.1250116271340005  0.8750312396550015  0.4026888195749976   F   F   F
  0.3749821452350020  0.1249803646400025  0.4026919445580006   F   F   F
  0.3749842098410028  0.3749385950830018  0.4026674268409991   F   F   F
  0.3749790295189968  0.6249932525710022  0.4026544769710014   F   F   F
  0.3749756831100015  0.8750288483830033  0.4026813313849971   F   F   F
  0.6250024151320019  0.1249938446290031  0.4026865843709970   F   F   F
  0.6250179622410030  0.3749327302029997  0.4026690186289983   F   F   F
  0.6250174089489988  0.6249707909160023  0.4026425953509971   F   F   F
  0.6250016471390012  0.8750328897129975  0.4026602442109990   F   F   F
  0.8750119045280016  0.1249986761419990  0.4026914039280030   F   F   F
  0.8750098905309969  0.3749470709430014  0.4026779902309983   F   F   F
  0.8750322860489987  0.6249851786690002  0.4026559399219991   F   F   F
  0.8750362342279985  0.8750359125389977  0.4026679327219966   F   F   F
  0.9996665938207840  0.0004036124135141  0.4677289263421684   T   T   T
  0.9984100318367908  0.2508276992078251  0.4683713559456564   T   T   T
  0.9992907496602257  0.4993156518992166  0.4683252147044641   T   T   T
  0.0007456186276897  0.7493196819103431  0.4680103236256343   T   T   T
  0.2499812041404326  0.9987482230613054  0.4682876415132426   T   T   T
  0.2486057638390875  0.2489945700954692  0.4676647391785949   T   T   T
  0.2485546196766961  0.5016510382042938  0.4672871582114269   T   T   T
  0.2500383224525393  0.7516608057819454  0.4683585027550947   T   T   T
  0.4991993527494785  0.9995606543530613  0.4682232101966548   T   T   T
  0.5008844203039686  0.2493273900137609  0.4674243923123313   T   T   T
  0.5020625208449871  0.5022622505291210  0.4673217911145642   T   T   T
  0.4991079790986817  0.7527297632561769  0.4681035778287637   T   T   T
  0.7489882709251034  0.0015090174761809  0.4679586610916360   T   T   T
  0.7511421065993673  0.2509522360773957  0.4684970469149405   T   T   T
  0.7527149139552023  0.4996331476311511  0.4680844204262300   T   T   T
  0.7502352690296021  0.7506931194784840  0.4678328643140475   T   T   T
  0.1221225799919949  0.1234782326468888  0.5337950978150445   T   T   T
  0.1232837185286755  0.3758449659573060  0.5327168739888322   T   T   T
  0.1251352356316104  0.6246361382615646  0.5347087469349674   T   T   T
  0.1271580880419094  0.8747594097412730  0.5339275431845039   T   T   T
  0.3753313045025806  0.1223544061625148  0.5321033269730009   T   T   T
  0.3751013823964797  0.3781988632165891  0.5297446518313507   T   T   T
  0.3736441530638643  0.6289452959240478  0.5319368416090668   T   T   T
  0.3741853570667857  0.8758522744944841  0.5378642270881215   T   T   T
  0.6245377027242540  0.1266063445535437  0.5347648125407858   T   T   T
  0.6282155934754812  0.3746149317010463  0.5320884789856777   T   T   T
  0.6291016266773397  0.6294951834447602  0.5327047670570408   T   T   T
  0.6214682059547130  0.8777819696850102  0.5336655322116570   T   T   T
  0.8737623835370556  0.1288766961289269  0.5342486017965911   T   T   T
  0.8756121437245383  0.3753533274764465  0.5383503743250344   T   T   T
  0.8767236467540158  0.6220153499044656  0.5339178996417360   T   T   T
  0.8745067761947496  0.8756821679271241  0.5323506261444848   T   T   T
  0.9944298995046523  0.9956493325417455  0.6003975897585860   T   T   T
  0.0052549194208709  0.2432067342945317  0.6052908780344879   T   T   T
  0.0104057139979830  0.5055530927748180  0.6053164108715308   T   T   T
  0.9958814690951172  0.7529500768909401  0.6003935623314831   T   T   T
  0.2418331426665148  0.0051549412634770  0.6049454060321295   T   T   T
  0.2482676813340632  0.2516621638113108  0.5951643482418021   T   T   T
  0.2619558909017030  0.4957768200601578  0.6011334468297349   T   T   T
  0.2429884922917154  0.7419403753558385  0.6045903257496832   T   T   T
  0.5046596900159770  0.0104861497227091  0.6050249989053569   T   T   T
  0.4952237664366876  0.2620368367436967  0.5990150086798849   T   T   T
  0.5034775153963835  0.5034587695244852  0.5934601469686811   T   T   T
  0.5059277965508358  0.7472614385524849  0.6037389608412624   T   T   T
  0.7517264893606495  0.9976373543582113  0.6006042618436283   T   T   T
  0.7404755700877885  0.2454330413331220  0.6055900482783940   T   T   T
  0.7458664354026823  0.5068471200130560  0.6045464780269185   T   T   T
  0.7531835866543091  0.7544957940426542  0.6000590426532426   T   T   T
 
  0.00000000E+00  0.00000000E+00  0.00000000E+00
  0.00000000E+00  0.00000000E+00  0.00000000E+00
  0.00000000E+00  0.00000000E+00  0.00000000E+00
  0.00000000E+00  0.00000000E+00  0.00000000E+00
  0.00000000E+00  0.00000000E+00  0.00000000E+00
  0.00000000E+00  0.00000000E+00  0.00000000E+00
  0.00000000E+00  0.00000000E+00  0.00000000E+00
  0.00000000E+00  0.00000000E+00  0.00000000E+00
  0.00000000E+00  0.00000000E+00  0.00000000E+00
  0.00000000E+00  0.00000000E+00  0.00000000E+00
  0.00000000E+00  0.00000000E+00  0.00000000E+00
  0.00000000E+00  0.00000000E+00  0.00000000E+00
  0.00000000E+00  0.00000000E+00  0.00000000E+00
  0.00000000E+00  0.00000000E+00  0.00000000E+00
  0.00000000E+00  0.00000000E+00  0.00000000E+00
  0.00000000E+00  0.00000000E+00  0.00000000E+00
  0.00000000E+00  0.00000000E+00  0.00000000E+00
  0.00000000E+00  0.00000000E+00  0.00000000E+00
  0.00000000E+00  0.00000000E+00  0.00000000E+00
  0.00000000E+00  0.00000000E+00  0.00000000E+00
  0.00000000E+00  0.00000000E+00  0.00000000E+00
  0.00000000E+00  0.00000000E+00  0.00000000E+00
  0.00000000E+00  0.00000000E+00  0.00000000E+00
  0.00000000E+00  0.00000000E+00  0.00000000E+00
  0.00000000E+00  0.00000000E+00  0.00000000E+00
  0.00000000E+00  0.00000000E+00  0.00000000E+00
  0.00000000E+00  0.00000000E+00  0.00000000E+00
  0.00000000E+00  0.00000000E+00  0.00000000E+00
  0.00000000E+00  0.00000000E+00  0.00000000E+00
  0.00000000E+00  0.00000000E+00  0.00000000E+00
  0.00000000E+00  0.00000000E+00  0.00000000E+00
  0.00000000E+00  0.00000000E+00  0.00000000E+00
  0.00000000E+00  0.00000000E+00  0.00000000E+00
  0.00000000E+00  0.00000000E+00  0.00000000E+00
  0.00000000E+00  0.00000000E+00  0.00000000E+00
  0.00000000E+00  0.00000000E+00  0.00000000E+00
  0.00000000E+00  0.00000000E+00  0.00000000E+00
  0.00000000E+00  0.00000000E+00  0.00000000E+00
  0.00000000E+00  0.00000000E+00  0.00000000E+00
  0.00000000E+00  0.00000000E+00  0.00000000E+00
  0.00000000E+00  0.00000000E+00  0.00000000E+00
  0.00000000E+00  0.00000000E+00  0.00000000E+00
  0.00000000E+00  0.00000000E+00  0.00000000E+00
  0.00000000E+00  0.00000000E+00  0.00000000E+00
  0.00000000E+00  0.00000000E+00  0.00000000E+00
  0.00000000E+00  0.00000000E+00  0.00000000E+00
  0.00000000E+00  0.00000000E+00  0.00000000E+00
  0.00000000E+00  0.00000000E+00  0.00000000E+00
  0.00000000E+00  0.00000000E+00  0.00000000E+00
  0.00000000E+00  0.00000000E+00  0.00000000E+00
  0.00000000E+00  0.00000000E+00  0.00000000E+00
  0.00000000E+00  0.00000000E+00  0.00000000E+00
  0.00000000E+00  0.00000000E+00  0.00000000E+00
  0.00000000E+00  0.00000000E+00  0.00000000E+00
  0.00000000E+00  0.00000000E+00  0.00000000E+00
  0.00000000E+00  0.00000000E+00  0.00000000E+00
  0.00000000E+00  0.00000000E+00  0.00000000E+00
  0.00000000E+00  0.00000000E+00  0.00000000E+00
  0.00000000E+00  0.00000000E+00  0.00000000E+00
  0.00000000E+00  0.00000000E+00  0.00000000E+00
  0.00000000E+00  0.00000000E+00  0.00000000E+00
  0.00000000E+00  0.00000000E+00  0.00000000E+00
  0.00000000E+00  0.00000000E+00  0.00000000E+00
  0.00000000E+00  0.00000000E+00  0.00000000E+00
  0.00000000E+00  0.00000000E+00  0.00000000E+00
  0.00000000E+00  0.00000000E+00  0.00000000E+00
  0.00000000E+00  0.00000000E+00  0.00000000E+00
  0.00000000E+00  0.00000000E+00  0.00000000E+00
  0.00000000E+00  0.00000000E+00  0.00000000E+00
  0.00000000E+00  0.00000000E+00  0.00000000E+00
  0.00000000E+00  0.00000000E+00  0.00000000E+00
  0.00000000E+00  0.00000000E+00  0.00000000E+00
  0.00000000E+00  0.00000000E+00  0.00000000E+00
  0.00000000E+00  0.00000000E+00  0.00000000E+00
  0.00000000E+00  0.00000000E+00  0.00000000E+00
  0.00000000E+00  0.00000000E+00  0.00000000E+00
  0.00000000E+00  0.00000000E+00  0.00000000E+00
  0.00000000E+00  0.00000000E+00  0.00000000E+00
  0.00000000E+00  0.00000000E+00  0.00000000E+00
  0.00000000E+00  0.00000000E+00  0.00000000E+00
  0.00000000E+00  0.00000000E+00  0.00000000E+00
  0.00000000E+00  0.00000000E+00  0.00000000E+00
  0.00000000E+00  0.00000000E+00  0.00000000E+00
  0.00000000E+00  0.00000000E+00  0.00000000E+00
  0.00000000E+00  0.00000000E+00  0.00000000E+00
