H N O Pd
1.0
 10.982000000000   0.000000000000   0.000000000000
  0.000000000000  10.982000000000   0.000000000000
  0.000000000000   0.000000000000  30.000000000000
H N O Pd
  3   1   2  64
Selective dynamics
Direct
  0.310889519884   0.444966712844   0.657403501026  T T T
  0.433049916068   0.442049307413   0.688331536765  T T T
  0.364575315537   0.312398191468   0.676204306329  T T T
  0.374907018556   0.199515689710   0.644524514879  T T T
  0.375049325081   0.083657015923   0.652385430110  T T T
  0.351439005913   0.404246091640   0.687593182972  T T T
  0.124969893121   0.124971203589   0.402795761630  F F F
  0.124958105233   0.375045259472   0.402777928374  F F F
  0.124978518867   0.625080622596   0.402814664194  F F F
  0.124989401332   0.875003358387   0.402831062598  F F F
  0.374995991910   0.124967821182   0.402791827195  F F F
  0.374998008648   0.375060791828   0.402774866983  F F F
  0.374999207642   0.625091084674   0.402825091054  F F F
  0.374997528406   0.874999147076   0.402838852715  F F F
  0.625016868975   0.124970220509   0.402796785438  F F F
  0.625020143628   0.375053760701   0.402785568335  F F F
  0.624995806002   0.625077691153   0.402825861495  F F F
  0.624992002604   0.874993499433   0.402836717685  F F F
  0.874988897396   0.124975741705   0.402803543492  F F F
  0.874981025917   0.375039593218   0.402792810097  F F F
  0.874976827131   0.625067626639   0.402819251737  F F F
  0.874983401750   0.875000042663   0.402829777859  F F F
  0.000189191310   0.000206151893   0.467841193059  F F F
  0.000359373739   0.250811348484   0.467928134886  F F F
  0.000147594914   0.500528204636   0.467890951825  F F F
  0.000100869569   0.750913414232   0.467986786043  F F F
  0.250151239706   0.000037864944   0.468033118337  F F F
  0.250395944803   0.250187458024   0.468103345131  F F F
  0.249875697916   0.499891553655   0.468040700862  F F F
  0.249815991014   0.750167813830   0.468115266856  F F F
  0.499936592049   0.000146863877   0.467977159242  F F F
  0.499783267968   0.250151324128   0.468019245142  F F F
  0.500246768225   0.499936328213   0.467995441734  F F F
  0.500121628548   0.750360284826   0.467982901986  F F F
  0.749814857137   0.000278599728   0.467868045046  F F F
  0.749742752007   0.250899152951   0.467962881562  F F F
  0.750212972720   0.500570589780   0.467898986031  F F F
  0.749836906465   0.750918768959   0.468144347740  F F F
  0.124550661791   0.125495865914   0.532647472204  F F F
  0.126489697528   0.374401055548   0.533622643542  F F F
  0.124711052687   0.625410403926   0.532867139285  F F F
  0.126745984452   0.876610462047   0.533694957968  F F F
  0.375259078994   0.124419751612   0.532939418272  F F F
  0.375309009108   0.374866585138   0.533252567114  F F F
  0.375092405455   0.624916508134   0.532833805985  F F F
  0.375167306634   0.875000879044   0.533400444983  F F F
  0.625461883845   0.125684743935   0.532730486251  F F F
  0.624038173323   0.374309772206   0.533553509161  F F F
  0.625578486224   0.625602549062   0.532739398840  F F F
  0.623417754483   0.876940821557   0.533700624329  F F F
  0.875025420423   0.125956652228   0.532533188631  F F F
  0.875383098785   0.376021575234   0.532964008224  F F F
  0.875357868604   0.625349510228   0.532905192505  F F F
  0.875133818624   0.875476819348   0.532764304150  F F F
  0.998571415900   0.001256982268   0.597980080428  F F F
  0.999492673563   0.250227333347   0.598237594900  F F F
  0.000985116236   0.500998928007   0.598400516338  F F F
  0.999768496781   0.750729954023   0.598125747650  F F F
  0.246451682899   0.997898670774   0.600051914183  F F F
  0.246902643195   0.249380032039   0.600252773951  F F F
  0.251348849621   0.499851501268   0.599065843390  F F F
  0.250196730169   0.747608201698   0.598322467998  F F F
  0.503906706494   0.998570675905   0.600141245321  F F F
  0.503240113331   0.250462854841   0.600809727060  F F F
  0.501005060856   0.501397079347   0.597899667196  F F F
  0.500123652412   0.748818053408   0.598338319966  F F F
  0.751821531776   0.001259536434   0.598080849041  F F F
  0.750572662263   0.250346904691   0.598118291869  F F F
  0.750820936116   0.501032283088   0.598326130845  F F F
  0.750362509839   0.750581376769   0.597983429508  F F F
