Pd N O                                  
   1.00000000000000     
    10.9819999999999993    0.0000000000000000    0.0000000000000000
     0.0000000000000000   10.9819999999999993    0.0000000000000000
     0.0000000000000000    0.0000000000000000   30.0000000000000000
   Pd   N    O 
    64     1     2
Selective dynamics
Direct
  0.1249995473439967  0.1249995473439967  0.4029322681199972   F   F   F
  0.1249995473439967  0.3749986420319971  0.4029322681199972   F   F   F
  0.1249995473439967  0.6249977367199975  0.4029322681199972   F   F   F
  0.1249995473439967  0.8749968314079979  0.4029322681199972   F   F   F
  0.3749986420319971  0.1249995473439967  0.4029322681199972   F   F   F
  0.3749986420319971  0.3749986420319971  0.4029322681199972   F   F   F
  0.3749986420319971  0.6249977367199975  0.4029322681199972   F   F   F
  0.3749986420319971  0.8749968314079979  0.4029322681199972   F   F   F
  0.6249977367199975  0.1249995473439967  0.4029322681199972   F   F   F
  0.6249977367199975  0.3749986420319971  0.4029322681199972   F   F   F
  0.6249977367199975  0.6249977367199975  0.4029322681199972   F   F   F
  0.6249977367199975  0.8749968314079979  0.4029322681199972   F   F   F
  0.8749968314079979  0.1249995473439967  0.4029322681199972   F   F   F
  0.8749968314079979  0.3749986420319971  0.4029322681199972   F   F   F
  0.8749968314079979  0.6249977367199975  0.4029322681199972   F   F   F
  0.8749968314079979  0.8749968314079979  0.4029322681199972   F   F   F
  0.9998759966438027  0.0000206956687497  0.4679949817349273   T   T   T
  0.0000394586296634  0.2501877632666718  0.4678402326784974   T   T   T
  0.0009463279782154  0.5000011776121481  0.4682808395589552   T   T   T
  0.0000304253160586  0.7498395767605757  0.4678296527576861   T   T   T
  0.2499199808021018  0.0000078541856635  0.4680183944657686   T   T   T
  0.2499902187192087  0.2507675514900157  0.4681018675227047   T   T   T
  0.2507819313734768  0.5000010621298060  0.4682791787621332   T   T   T
  0.2499957847910406  0.7492392439292341  0.4680983503644273   T   T   T
  0.5000297213639706  0.0000044326997667  0.4679282696001119   T   T   T
  0.4999274849804790  0.2506468985913969  0.4680358850472800   T   T   T
  0.4994574172606857  0.4999989141787755  0.4682962565487425   T   T   T
  0.4999229119307719  0.7493540015582479  0.4680338971951702   T   T   T
  0.7500312352285498  0.0000179235814076  0.4680229091729167   T   T   T
  0.7497621157579829  0.2503169220157380  0.4680232625219294   T   T   T
  0.7496827388390912  0.5000013475670503  0.4682715636402431   T   T   T
  0.7497666887447578  0.7497097731976784  0.4680123873345477   T   T   T
  0.1247504325060525  0.1254407127783981  0.5326490413030958   T   T   T
  0.1263067981232324  0.3762685524186888  0.5335798308660645   T   T   T
  0.1262516971521498  0.6238018085249912  0.5335550573313986   T   T   T
  0.1247422955903199  0.8745985936661314  0.5326378338284952   T   T   T
  0.3749687623294703  0.1252117425616743  0.5326221241354413   T   T   T
  0.3752260035185344  0.3759187133053973  0.5339181097728147   T   T   T
  0.3752244372689217  0.6240487627412740  0.5339207340253653   T   T   T
  0.3749734437435393  0.8747910132810742  0.5326164208018688   T   T   T
  0.6251525898134074  0.1252464347956672  0.5326516759784676   T   T   T
  0.6242430103295711  0.3762115127827188  0.5334798975538686   T   T   T
  0.6242842161720858  0.6238441952702706  0.5334569888236809   T   T   T
  0.6251605867810091  0.8747777464545381  0.5326456030260970   T   T   T
  0.8750515337503028  0.1251653069783201  0.5327567666749035   T   T   T
  0.8754416758622771  0.3748073011886115  0.5327246339432883   T   T   T
  0.8754367666638285  0.6252281783846592  0.5327161258027033   T   T   T
  0.8750518034513404  0.8748773386869275  0.5327497669631216   T   T   T
  0.0000660988665309  0.0000116117478338  0.5978365117048843   T   T   T
  0.9994784442379256  0.2495058458760888  0.5980694886013598   T   T   T
  0.9979753186836009  0.5000341450173493  0.5985033544743158   T   T   T
  0.9994727277969288  0.7505315253756143  0.5980637135546778   T   T   T
  0.2499959969354215  0.9999939421335401  0.5977107674025702   T   T   T
  0.2499051661116079  0.2483283427611189  0.5978865983950543   T   T   T
  0.2428168260548340  0.4999367623850288  0.6014264591770038   T   T   T
  0.2498778195545952  0.7516801948734195  0.5978560554836176   T   T   T
  0.4998208216962473  0.9999915173621426  0.5977550001033440   T   T   T
  0.5004820046003255  0.2481284818535480  0.5977769781991796   T   T   T
  0.5073579286523962  0.4999323120099411  0.6008989997651296   T   T   T
  0.5005054246997138  0.7518555396333747  0.5977582326740472   T   T   T
  0.7498810768466365  0.0000152047150126  0.5978275281555552   T   T   T
  0.7505218209926672  0.2497874213352190  0.5979870215966238   T   T   T
  0.7531088394882540  0.5000382667721915  0.5981770377297069   T   T   T
  0.7505283393619183  0.7502527605812862  0.5979819097448154   T   T   T
  0.3104355488562415  0.5008730094070055  0.6632965364347936   T   T   T
  0.4281395904516530  0.5008976853791974  0.6661139094624181   T   T   T
  0.2482477740134672  0.5013973319545135  0.6970989723153987   T   T   T
 
  0.00000000E+00  0.00000000E+00  0.00000000E+00
  0.00000000E+00  0.00000000E+00  0.00000000E+00
  0.00000000E+00  0.00000000E+00  0.00000000E+00
  0.00000000E+00  0.00000000E+00  0.00000000E+00
  0.00000000E+00  0.00000000E+00  0.00000000E+00
  0.00000000E+00  0.00000000E+00  0.00000000E+00
  0.00000000E+00  0.00000000E+00  0.00000000E+00
  0.00000000E+00  0.00000000E+00  0.00000000E+00
  0.00000000E+00  0.00000000E+00  0.00000000E+00
  0.00000000E+00  0.00000000E+00  0.00000000E+00
  0.00000000E+00  0.00000000E+00  0.00000000E+00
  0.00000000E+00  0.00000000E+00  0.00000000E+00
  0.00000000E+00  0.00000000E+00  0.00000000E+00
  0.00000000E+00  0.00000000E+00  0.00000000E+00
  0.00000000E+00  0.00000000E+00  0.00000000E+00
  0.00000000E+00  0.00000000E+00  0.00000000E+00
  0.00000000E+00  0.00000000E+00  0.00000000E+00
  0.00000000E+00  0.00000000E+00  0.00000000E+00
  0.00000000E+00  0.00000000E+00  0.00000000E+00
  0.00000000E+00  0.00000000E+00  0.00000000E+00
  0.00000000E+00  0.00000000E+00  0.00000000E+00
  0.00000000E+00  0.00000000E+00  0.00000000E+00
  0.00000000E+00  0.00000000E+00  0.00000000E+00
  0.00000000E+00  0.00000000E+00  0.00000000E+00
  0.00000000E+00  0.00000000E+00  0.00000000E+00
  0.00000000E+00  0.00000000E+00  0.00000000E+00
  0.00000000E+00  0.00000000E+00  0.00000000E+00
  0.00000000E+00  0.00000000E+00  0.00000000E+00
  0.00000000E+00  0.00000000E+00  0.00000000E+00
  0.00000000E+00  0.00000000E+00  0.00000000E+00
  0.00000000E+00  0.00000000E+00  0.00000000E+00
  0.00000000E+00  0.00000000E+00  0.00000000E+00
  0.00000000E+00  0.00000000E+00  0.00000000E+00
  0.00000000E+00  0.00000000E+00  0.00000000E+00
  0.00000000E+00  0.00000000E+00  0.00000000E+00
  0.00000000E+00  0.00000000E+00  0.00000000E+00
  0.00000000E+00  0.00000000E+00  0.00000000E+00
  0.00000000E+00  0.00000000E+00  0.00000000E+00
  0.00000000E+00  0.00000000E+00  0.00000000E+00
  0.00000000E+00  0.00000000E+00  0.00000000E+00
  0.00000000E+00  0.00000000E+00  0.00000000E+00
  0.00000000E+00  0.00000000E+00  0.00000000E+00
  0.00000000E+00  0.00000000E+00  0.00000000E+00
  0.00000000E+00  0.00000000E+00  0.00000000E+00
  0.00000000E+00  0.00000000E+00  0.00000000E+00
  0.00000000E+00  0.00000000E+00  0.00000000E+00
  0.00000000E+00  0.00000000E+00  0.00000000E+00
  0.00000000E+00  0.00000000E+00  0.00000000E+00
  0.00000000E+00  0.00000000E+00  0.00000000E+00
  0.00000000E+00  0.00000000E+00  0.00000000E+00
  0.00000000E+00  0.00000000E+00  0.00000000E+00
  0.00000000E+00  0.00000000E+00  0.00000000E+00
  0.00000000E+00  0.00000000E+00  0.00000000E+00
  0.00000000E+00  0.00000000E+00  0.00000000E+00
  0.00000000E+00  0.00000000E+00  0.00000000E+00
  0.00000000E+00  0.00000000E+00  0.00000000E+00
  0.00000000E+00  0.00000000E+00  0.00000000E+00
  0.00000000E+00  0.00000000E+00  0.00000000E+00
  0.00000000E+00  0.00000000E+00  0.00000000E+00
  0.00000000E+00  0.00000000E+00  0.00000000E+00
  0.00000000E+00  0.00000000E+00  0.00000000E+00
  0.00000000E+00  0.00000000E+00  0.00000000E+00
  0.00000000E+00  0.00000000E+00  0.00000000E+00
  0.00000000E+00  0.00000000E+00  0.00000000E+00
  0.00000000E+00  0.00000000E+00  0.00000000E+00
  0.00000000E+00  0.00000000E+00  0.00000000E+00
  0.00000000E+00  0.00000000E+00  0.00000000E+00
