H N O Pd                                
   1.00000000000000     
    10.9819999999999993    0.0000000000000000    0.0000000000000000
     0.0000000000000000   10.9819999999999993    0.0000000000000000
     0.0000000000000000    0.0000000000000000   30.0000000000000000
   H    N    O    Pd
     3     1     2    64
Selective dynamics
Direct
  0.4317216467576681  0.4284345208609577  0.6865142292124080   T   T   T
  0.1286741527797679  0.4571917038201524  0.6792113002733449   T   T   T
  0.0218716409539641  0.3659752441989105  0.6755218457860162   T   T   T
  0.3722216131045946  0.3773959472156538  0.6288400675973280   T   T   T
  0.3619268201991472  0.3793565388171676  0.6765384051547548   T   T   T
  0.0394948287540885  0.4534778119795800  0.6777603250287773   T   T   T
  0.1249995473439967  0.1249995473439967  0.4029322681199972   F   F   F
  0.1249995473439967  0.3749986420319971  0.4029322681199972   F   F   F
  0.1249995473439967  0.6249977367199975  0.4029322681199972   F   F   F
  0.1249995473439967  0.8749968314079979  0.4029322681199972   F   F   F
  0.3749986420319971  0.1249995473439967  0.4029322681199972   F   F   F
  0.3749986420319971  0.3749986420319971  0.4029322681199972   F   F   F
  0.3749986420319971  0.6249977367199975  0.4029322681199972   F   F   F
  0.3749986420319971  0.8749968314079979  0.4029322681199972   F   F   F
  0.6249977367199975  0.1249995473439967  0.4029322681199972   F   F   F
  0.6249977367199975  0.3749986420319971  0.4029322681199972   F   F   F
  0.6249977367199975  0.6249977367199975  0.4029322681199972   F   F   F
  0.6249977367199975  0.8749968314079979  0.4029322681199972   F   F   F
  0.8749968314079979  0.1249995473439967  0.4029322681199972   F   F   F
  0.8749968314079979  0.3749986420319971  0.4029322681199972   F   F   F
  0.8749968314079979  0.6249977367199975  0.4029322681199972   F   F   F
  0.8749968314079979  0.8749968314079979  0.4029322681199972   F   F   F
 -0.0000905579849689 -0.0000864397804608  0.4680685746825185   T   T   T
 -0.0003216071427491  0.2497888198072926  0.4682046614302746   T   T   T
 -0.0002483237942893  0.5003462746274251  0.4680700036465633   T   T   T
 -0.0001926129251219  0.7496373330901817  0.4682306352606994   T   T   T
  0.2496497625471305  0.0001889499624767  0.4680431131398670   T   T   T
  0.2494620712327908  0.2497684065973538  0.4677801179871231   T   T   T
  0.2492912150787568  0.5006208545254583  0.4679550877298976   T   T   T
  0.2494893062735798  0.7502856523987594  0.4679577145295279   T   T   T
  0.5004219036139270  0.0001534608724244  0.4680248237096444   T   T   T
  0.5005016362563051  0.2496926793365091  0.4678388605654287   T   T   T
  0.5005409663417969  0.5005289896985927  0.4678029544745043   T   T   T
  0.5007070315254082  0.7503050909029603  0.4680355489034226   T   T   T
  0.7498369522790046  0.9997521862145498  0.4681329574246786   T   T   T
  0.7499839644202547  0.2496337273140961  0.4680407925155174   T   T   T
  0.7503006042582836  0.5003209187009018  0.4682876232527561   T   T   T
  0.7503310558608555  0.7494949648187520  0.4682957152651112   T   T   T
  0.1266323332928946  0.1262898148930795  0.5336288186431059   T   T   T
  0.1229866181922331  0.3756693687248378  0.5329266205165006   T   T   T
  0.1254098792200045  0.6235909420374154  0.5340189474754260   T   T   T
  0.1252241281166164  0.8751828653064453  0.5329755302088475   T   T   T
  0.3751706892851053  0.1246109485077520  0.5328246706699712   T   T   T
  0.3751943198775162  0.3748606849020285  0.5306078985259521   T   T   T
  0.3751890769759140  0.6270825286222329  0.5323817694748495   T   T   T
  0.3750927980786954  0.8757036567778630  0.5328296551951800   T   T   T
  0.6233221269276334  0.1266335256931084  0.5339093472066510   T   T   T
  0.6258311054501625  0.3746837096890897  0.5328863142482176   T   T   T
  0.6239201007458151  0.6237082064375534  0.5338450080100765   T   T   T
  0.6249129416822834  0.8752563315924050  0.5331578491322319   T   T   T
  0.8740757663816532  0.1246230793893826  0.5328946896421498   T   T   T
  0.8749674109217033  0.3755625094278168  0.5333576390503648   T   T   T
  0.8762242930964977  0.6234294592383941  0.5339479380247263   T   T   T
  0.8748742468513905  0.8745741376813400  0.5329659576257911   T   T   T
 -0.0004302843271122  0.0001837163052888  0.5981488088133567   T   T   T
 -0.0009616996650678  0.2482132405342214  0.5974957168330488   T   T   T
 -0.0017534388186373  0.5015591010999436  0.6015535346032521   T   T   T
  0.0003110727856379  0.7519052530095378  0.5981360577924493   T   T   T
  0.2498724304664910  0.0000801262407910  0.5983882294286907   T   T   T
  0.2495433555257394  0.2507015225223357  0.5996116455253274   T   T   T
  0.2518963937708227  0.5004216763388147  0.5981169664201976   T   T   T
  0.2504414637140044  0.7510956001635328  0.5983957793732652   T   T   T
  0.4996493318468188  0.0002627529914392  0.5985355703942977   T   T   T
  0.4987210867373705  0.2515182591946479  0.6004143758005167   T   T   T
  0.4994663035131550  0.5004886446459563  0.5995217941243890   T   T   T
  0.4999717534486751  0.7509660592020169  0.5983709863067826   T   T   T
  0.7499065424086595 -0.0001549352109368  0.5982288706106517   T   T   T
  0.7499982853079472  0.2498237174482402  0.5987747545932605   T   T   T
  0.7484969131029094  0.4993946428426340  0.5986170029250618   T   T   T
  0.7501039774401116  0.7501792883752286  0.5983306767644094   T   T   T
 
  0.00000000E+00  0.00000000E+00  0.00000000E+00
  0.00000000E+00  0.00000000E+00  0.00000000E+00
  0.00000000E+00  0.00000000E+00  0.00000000E+00
  0.00000000E+00  0.00000000E+00  0.00000000E+00
  0.00000000E+00  0.00000000E+00  0.00000000E+00
  0.00000000E+00  0.00000000E+00  0.00000000E+00
  0.00000000E+00  0.00000000E+00  0.00000000E+00
  0.00000000E+00  0.00000000E+00  0.00000000E+00
  0.00000000E+00  0.00000000E+00  0.00000000E+00
  0.00000000E+00  0.00000000E+00  0.00000000E+00
  0.00000000E+00  0.00000000E+00  0.00000000E+00
  0.00000000E+00  0.00000000E+00  0.00000000E+00
  0.00000000E+00  0.00000000E+00  0.00000000E+00
  0.00000000E+00  0.00000000E+00  0.00000000E+00
  0.00000000E+00  0.00000000E+00  0.00000000E+00
  0.00000000E+00  0.00000000E+00  0.00000000E+00
  0.00000000E+00  0.00000000E+00  0.00000000E+00
  0.00000000E+00  0.00000000E+00  0.00000000E+00
  0.00000000E+00  0.00000000E+00  0.00000000E+00
  0.00000000E+00  0.00000000E+00  0.00000000E+00
  0.00000000E+00  0.00000000E+00  0.00000000E+00
  0.00000000E+00  0.00000000E+00  0.00000000E+00
  0.00000000E+00  0.00000000E+00  0.00000000E+00
  0.00000000E+00  0.00000000E+00  0.00000000E+00
  0.00000000E+00  0.00000000E+00  0.00000000E+00
  0.00000000E+00  0.00000000E+00  0.00000000E+00
  0.00000000E+00  0.00000000E+00  0.00000000E+00
  0.00000000E+00  0.00000000E+00  0.00000000E+00
  0.00000000E+00  0.00000000E+00  0.00000000E+00
  0.00000000E+00  0.00000000E+00  0.00000000E+00
  0.00000000E+00  0.00000000E+00  0.00000000E+00
  0.00000000E+00  0.00000000E+00  0.00000000E+00
  0.00000000E+00  0.00000000E+00  0.00000000E+00
  0.00000000E+00  0.00000000E+00  0.00000000E+00
  0.00000000E+00  0.00000000E+00  0.00000000E+00
  0.00000000E+00  0.00000000E+00  0.00000000E+00
  0.00000000E+00  0.00000000E+00  0.00000000E+00
  0.00000000E+00  0.00000000E+00  0.00000000E+00
  0.00000000E+00  0.00000000E+00  0.00000000E+00
  0.00000000E+00  0.00000000E+00  0.00000000E+00
  0.00000000E+00  0.00000000E+00  0.00000000E+00
  0.00000000E+00  0.00000000E+00  0.00000000E+00
  0.00000000E+00  0.00000000E+00  0.00000000E+00
  0.00000000E+00  0.00000000E+00  0.00000000E+00
  0.00000000E+00  0.00000000E+00  0.00000000E+00
  0.00000000E+00  0.00000000E+00  0.00000000E+00
  0.00000000E+00  0.00000000E+00  0.00000000E+00
  0.00000000E+00  0.00000000E+00  0.00000000E+00
  0.00000000E+00  0.00000000E+00  0.00000000E+00
  0.00000000E+00  0.00000000E+00  0.00000000E+00
  0.00000000E+00  0.00000000E+00  0.00000000E+00
  0.00000000E+00  0.00000000E+00  0.00000000E+00
  0.00000000E+00  0.00000000E+00  0.00000000E+00
  0.00000000E+00  0.00000000E+00  0.00000000E+00
  0.00000000E+00  0.00000000E+00  0.00000000E+00
  0.00000000E+00  0.00000000E+00  0.00000000E+00
  0.00000000E+00  0.00000000E+00  0.00000000E+00
  0.00000000E+00  0.00000000E+00  0.00000000E+00
  0.00000000E+00  0.00000000E+00  0.00000000E+00
  0.00000000E+00  0.00000000E+00  0.00000000E+00
  0.00000000E+00  0.00000000E+00  0.00000000E+00
  0.00000000E+00  0.00000000E+00  0.00000000E+00
  0.00000000E+00  0.00000000E+00  0.00000000E+00
  0.00000000E+00  0.00000000E+00  0.00000000E+00
  0.00000000E+00  0.00000000E+00  0.00000000E+00
  0.00000000E+00  0.00000000E+00  0.00000000E+00
  0.00000000E+00  0.00000000E+00  0.00000000E+00
  0.00000000E+00  0.00000000E+00  0.00000000E+00
  0.00000000E+00  0.00000000E+00  0.00000000E+00
  0.00000000E+00  0.00000000E+00  0.00000000E+00
