N O Pd                                  
   1.00000000000000     
    10.9819999999999993    0.0000000000000000    0.0000000000000000
     0.0000000000000000   10.9819999999999993    0.0000000000000000
     0.0000000000000000    0.0000000000000000   30.0000000000000000
   N    O    Pd
    11    10    64
Selective dynamics
Direct
  0.3653330124003585  0.3020850286597622  0.6447161218067881   T   T   T
  0.3750027181729598  0.0085937892106701  0.6505914253929453   T   T   T
  0.3507344260234229  0.4143243566291281  0.6544317655318416   T   T   T
  0.7430534378164562  0.3816216426178791  0.6492663896745710   T   T   T
  0.6553105291549680  0.0959986637342678  0.6443169909349294   T   T   T
  0.6363232612756285  0.7234482956901324  0.6503242186231090   T   T   T
  0.0049174209257059  0.3732173715488025  0.6501331030295920   T   T   T
  0.0997273984779949  0.0981317852925363  0.6433821515163651   T   T   T
  0.0925693936569075  0.6503572107646434  0.6442021203965758   T   T   T
  0.8838593207208054  0.8792135793862472  0.6413517646982587   T   T   T
  0.3608942909868340  0.7519342852731440  0.6522787795572510   T   T   T
  0.3742587346157998  0.0384987399130634  0.6887606285018394   T   T   T
  0.4462772654513035  0.4820493385853660  0.6642799358844320   T   T   T
  0.7253617416585738  0.3903840650687385  0.6882972332926199   T   T   T
  0.6604363317139849  0.0899004985126895  0.6844579414667066   T   T   T
  0.6451161896547730  0.7296547812363242  0.6898261610642177   T   T   T
  0.0281890923982434  0.3719922126114587  0.6889300556063696   T   T   T
  0.0961781519460247  0.0948516686492564  0.6835447621155554   T   T   T
  0.0883644445987692  0.6547640411007342  0.6843530459992516   T   T   T
  0.8851644273725153  0.8810795219862090  0.6816723397849496   T   T   T
  0.3570013509561270  0.7317170848267973  0.6911720523917774   T   T   T
  0.1249995473439967  0.1249995473439967  0.4029322681199972   F   F   F
  0.1249995473439967  0.3749986420319971  0.4029322681199972   F   F   F
  0.1249995473439967  0.6249977367199975  0.4029322681199972   F   F   F
  0.1249995473439967  0.8749968314079979  0.4029322681199972   F   F   F
  0.3749986420319971  0.1249995473439967  0.4029322681199972   F   F   F
  0.3749986420319971  0.3749986420319971  0.4029322681199972   F   F   F
  0.3749986420319971  0.6249977367199975  0.4029322681199972   F   F   F
  0.3749986420319971  0.8749968314079979  0.4029322681199972   F   F   F
  0.6249977367199975  0.1249995473439967  0.4029322681199972   F   F   F
  0.6249977367199975  0.3749986420319971  0.4029322681199972   F   F   F
  0.6249977367199975  0.6249977367199975  0.4029322681199972   F   F   F
  0.6249977367199975  0.8749968314079979  0.4029322681199972   F   F   F
  0.8749968314079979  0.1249995473439967  0.4029322681199972   F   F   F
  0.8749968314079979  0.3749986420319971  0.4029322681199972   F   F   F
  0.8749968314079979  0.6249977367199975  0.4029322681199972   F   F   F
  0.8749968314079979  0.8749968314079979  0.4029322681199972   F   F   F
  0.9998885595076418  0.9996853137182994  0.4683982835510467   T   T   T
  0.9989307139323658  0.2495604282444176  0.4682401238497845   T   T   T
  0.9992930771225825  0.4996009797127305  0.4680932490691069   T   T   T
  0.0002813077029086  0.7492673904787465  0.4684309670089982   T   T   T
  0.2502650427904828  0.9984073472521676  0.4685775244708960   T   T   T
  0.2491728159025549  0.2489637036319803  0.4675053008168976   T   T   T
  0.2494614115427698  0.5017207819552323  0.4676793654186173   T   T   T
  0.2507886845249303  0.7511369642195694  0.4686662802563329   T   T   T
  0.4992504108228620  0.9988988910697381  0.4684049521645638   T   T   T
  0.5010043273218324  0.2494783777359711  0.4677527279953254   T   T   T
  0.5016239119943477  0.5024488033113922  0.4677098493230641   T   T   T
  0.4992077302813360  0.7522187321541740  0.4685698123611385   T   T   T
  0.7492234762021394  0.0000788413828233  0.4682932114812352   T   T   T
  0.7507492472251905  0.2501137816724138  0.4685772900457461   T   T   T
  0.7519612568271352  0.4993391016939645  0.4684247038532622   T   T   T
  0.7492738015900692  0.7496810310294140  0.4683917098398201   T   T   T
  0.1241662578117993  0.1242253602760951  0.5342256667918639   T   T   T
  0.1231468212345286  0.3745635777671286  0.5318200875709910   T   T   T
  0.1250579316279725  0.6243847243326028  0.5343059767550167   T   T   T
  0.1273227093276972  0.8742259555413704  0.5340872089436750   T   T   T
  0.3748238909999313  0.1228073202656413  0.5321813502958808   T   T   T
  0.3753688213428559  0.3769020838329828  0.5304714191428036   T   T   T
  0.3763775511567379  0.6290365813908878  0.5333322228181397   T   T   T
  0.3742980345479329  0.8755382185800089  0.5383662795922745   T   T   T
  0.6251833315259842  0.1248893256922351  0.5342981983206260   T   T   T
  0.6272882941177524  0.3759234960275874  0.5325083290653803   T   T   T
  0.6272181286424615  0.6277160860189216  0.5340300966854427   T   T   T
  0.6206952629081068  0.8758629470828611  0.5344946844000521   T   T   T
  0.8743843491147404  0.1271366986211622  0.5340657216305887   T   T   T
  0.8775707327323247  0.3727017980517721  0.5365183379269939   T   T   T
  0.8754140175021656  0.6224034858014661  0.5343943315358625   T   T   T
  0.8736280024694418  0.8737410963625416  0.5331695317751706   T   T   T
  0.9970441487770036  0.9965502445597797  0.6005012519627164   T   T   T
  0.0025446813144055  0.2434500298282948  0.6041730867436154   T   T   T
  0.0095514559864481  0.5048206273311843  0.6048899925193086   T   T   T
  0.9943541977956908  0.7531041073557774  0.6009900204212572   T   T   T
  0.2441707136900219  0.0040531208591048  0.6044502989022369   T   T   T
  0.2474487635721784  0.2510790497187700  0.5978994945681151   T   T   T
  0.2547492890834601  0.4938918370527641  0.5980976823238888   T   T   T
  0.2394411704023721  0.7394927620356430  0.6045402923798154   T   T   T
  0.5059271311689729  0.0121820320549658  0.6049451339493369   T   T   T
  0.4955781186688680  0.2581024967997788  0.5978110797316671   T   T   T
  0.5110577554123463  0.5055602932001230  0.5971949025471439   T   T   T
  0.4980218897517646  0.7518468004816226  0.6076434460215724   T   T   T
  0.7538360826694179  0.9959488015087545  0.6005756859358028   T   T   T
  0.7390442429973900  0.2434127520480253  0.6057143001588567   T   T   T
  0.7548231940621279  0.5012293097300714  0.6016908462198381   T   T   T
  0.7520062481448511  0.7501171429608912  0.6018929747417469   T   T   T
 
  0.00000000E+00  0.00000000E+00  0.00000000E+00
  0.00000000E+00  0.00000000E+00  0.00000000E+00
  0.00000000E+00  0.00000000E+00  0.00000000E+00
  0.00000000E+00  0.00000000E+00  0.00000000E+00
  0.00000000E+00  0.00000000E+00  0.00000000E+00
  0.00000000E+00  0.00000000E+00  0.00000000E+00
  0.00000000E+00  0.00000000E+00  0.00000000E+00
  0.00000000E+00  0.00000000E+00  0.00000000E+00
  0.00000000E+00  0.00000000E+00  0.00000000E+00
  0.00000000E+00  0.00000000E+00  0.00000000E+00
  0.00000000E+00  0.00000000E+00  0.00000000E+00
  0.00000000E+00  0.00000000E+00  0.00000000E+00
  0.00000000E+00  0.00000000E+00  0.00000000E+00
  0.00000000E+00  0.00000000E+00  0.00000000E+00
  0.00000000E+00  0.00000000E+00  0.00000000E+00
  0.00000000E+00  0.00000000E+00  0.00000000E+00
  0.00000000E+00  0.00000000E+00  0.00000000E+00
  0.00000000E+00  0.00000000E+00  0.00000000E+00
  0.00000000E+00  0.00000000E+00  0.00000000E+00
  0.00000000E+00  0.00000000E+00  0.00000000E+00
  0.00000000E+00  0.00000000E+00  0.00000000E+00
  0.00000000E+00  0.00000000E+00  0.00000000E+00
  0.00000000E+00  0.00000000E+00  0.00000000E+00
  0.00000000E+00  0.00000000E+00  0.00000000E+00
  0.00000000E+00  0.00000000E+00  0.00000000E+00
  0.00000000E+00  0.00000000E+00  0.00000000E+00
  0.00000000E+00  0.00000000E+00  0.00000000E+00
  0.00000000E+00  0.00000000E+00  0.00000000E+00
  0.00000000E+00  0.00000000E+00  0.00000000E+00
  0.00000000E+00  0.00000000E+00  0.00000000E+00
  0.00000000E+00  0.00000000E+00  0.00000000E+00
  0.00000000E+00  0.00000000E+00  0.00000000E+00
  0.00000000E+00  0.00000000E+00  0.00000000E+00
  0.00000000E+00  0.00000000E+00  0.00000000E+00
  0.00000000E+00  0.00000000E+00  0.00000000E+00
  0.00000000E+00  0.00000000E+00  0.00000000E+00
  0.00000000E+00  0.00000000E+00  0.00000000E+00
  0.00000000E+00  0.00000000E+00  0.00000000E+00
  0.00000000E+00  0.00000000E+00  0.00000000E+00
  0.00000000E+00  0.00000000E+00  0.00000000E+00
  0.00000000E+00  0.00000000E+00  0.00000000E+00
  0.00000000E+00  0.00000000E+00  0.00000000E+00
  0.00000000E+00  0.00000000E+00  0.00000000E+00
  0.00000000E+00  0.00000000E+00  0.00000000E+00
  0.00000000E+00  0.00000000E+00  0.00000000E+00
  0.00000000E+00  0.00000000E+00  0.00000000E+00
  0.00000000E+00  0.00000000E+00  0.00000000E+00
  0.00000000E+00  0.00000000E+00  0.00000000E+00
  0.00000000E+00  0.00000000E+00  0.00000000E+00
  0.00000000E+00  0.00000000E+00  0.00000000E+00
  0.00000000E+00  0.00000000E+00  0.00000000E+00
  0.00000000E+00  0.00000000E+00  0.00000000E+00
  0.00000000E+00  0.00000000E+00  0.00000000E+00
  0.00000000E+00  0.00000000E+00  0.00000000E+00
  0.00000000E+00  0.00000000E+00  0.00000000E+00
  0.00000000E+00  0.00000000E+00  0.00000000E+00
  0.00000000E+00  0.00000000E+00  0.00000000E+00
  0.00000000E+00  0.00000000E+00  0.00000000E+00
  0.00000000E+00  0.00000000E+00  0.00000000E+00
  0.00000000E+00  0.00000000E+00  0.00000000E+00
  0.00000000E+00  0.00000000E+00  0.00000000E+00
  0.00000000E+00  0.00000000E+00  0.00000000E+00
  0.00000000E+00  0.00000000E+00  0.00000000E+00
  0.00000000E+00  0.00000000E+00  0.00000000E+00
  0.00000000E+00  0.00000000E+00  0.00000000E+00
  0.00000000E+00  0.00000000E+00  0.00000000E+00
  0.00000000E+00  0.00000000E+00  0.00000000E+00
  0.00000000E+00  0.00000000E+00  0.00000000E+00
  0.00000000E+00  0.00000000E+00  0.00000000E+00
  0.00000000E+00  0.00000000E+00  0.00000000E+00
  0.00000000E+00  0.00000000E+00  0.00000000E+00
  0.00000000E+00  0.00000000E+00  0.00000000E+00
  0.00000000E+00  0.00000000E+00  0.00000000E+00
  0.00000000E+00  0.00000000E+00  0.00000000E+00
  0.00000000E+00  0.00000000E+00  0.00000000E+00
  0.00000000E+00  0.00000000E+00  0.00000000E+00
  0.00000000E+00  0.00000000E+00  0.00000000E+00
  0.00000000E+00  0.00000000E+00  0.00000000E+00
  0.00000000E+00  0.00000000E+00  0.00000000E+00
  0.00000000E+00  0.00000000E+00  0.00000000E+00
  0.00000000E+00  0.00000000E+00  0.00000000E+00
  0.00000000E+00  0.00000000E+00  0.00000000E+00
  0.00000000E+00  0.00000000E+00  0.00000000E+00
  0.00000000E+00  0.00000000E+00  0.00000000E+00
  0.00000000E+00  0.00000000E+00  0.00000000E+00
