H N O Pd                                
   1.00000000000000     
    10.9819999999999993    0.0000000000000000    0.0000000000000000
     0.0000000000000000   10.9819999999999993    0.0000000000000000
     0.0000000000000000    0.0000000000000000   30.0000000000000000
   H    N    O    Pd
     4     1     2    64
Selective dynamics
Direct
  0.4334410088164311  0.4371254007144542  0.6870527837487448   T   T   T
  0.1981877740902187  0.3745256155725499  0.6984693068666616   T   T   T
  0.0704992805066136  0.3255098852584402  0.6870556769879200   T   T   T
  0.0988284466783636  0.3699725253240824  0.6111593889312245   T   T   T
  0.3808323979160704  0.3753941503816199  0.6296852454752531   T   T   T
  0.3790365312804496  0.3709844068754843  0.6774028765996781   T   T   T
  0.1115881674202616  0.3900099354644513  0.7036220754895545   T   T   T
  0.1249995473439967  0.1249995473439967  0.4029322681199972   F   F   F
  0.1249995473439967  0.3749986420319971  0.4029322681199972   F   F   F
  0.1249995473439967  0.6249977367199975  0.4029322681199972   F   F   F
  0.1249995473439967  0.8749968314079979  0.4029322681199972   F   F   F
  0.3749986420319971  0.1249995473439967  0.4029322681199972   F   F   F
  0.3749986420319971  0.3749986420319971  0.4029322681199972   F   F   F
  0.3749986420319971  0.6249977367199975  0.4029322681199972   F   F   F
  0.3749986420319971  0.8749968314079979  0.4029322681199972   F   F   F
  0.6249977367199975  0.1249995473439967  0.4029322681199972   F   F   F
  0.6249977367199975  0.3749986420319971  0.4029322681199972   F   F   F
  0.6249977367199975  0.6249977367199975  0.4029322681199972   F   F   F
  0.6249977367199975  0.8749968314079979  0.4029322681199972   F   F   F
  0.8749968314079979  0.1249995473439967  0.4029322681199972   F   F   F
  0.8749968314079979  0.3749986420319971  0.4029322681199972   F   F   F
  0.8749968314079979  0.6249977367199975  0.4029322681199972   F   F   F
  0.8749968314079979  0.8749968314079979  0.4029322681199972   F   F   F
  0.9999151230715149  0.9999153073465029  0.4681530338000879   T   T   T
  0.9998849422136101  0.2495586692240283  0.4682070531309752   T   T   T
 -0.0000020549336364  0.5001927462371608  0.4681060596167541   T   T   T
 -0.0000460613102786  0.7496314436661792  0.4682208472637773   T   T   T
  0.2497153636356419  0.0000289679312666  0.4680518353962073   T   T   T
  0.2494605064757453  0.2495659538046589  0.4678799108547860   T   T   T
  0.2496325963269846  0.5005823668229087  0.4678599893140291   T   T   T
  0.2498073140138570  0.7500810705766408  0.4680374068492693   T   T   T
  0.5002149245298649  0.9998696744168076  0.4680640276634926   T   T   T
  0.5002347269822023  0.2494796847907495  0.4678814448408339   T   T   T
  0.5004487008390517  0.5003707104344465  0.4678592365481109   T   T   T
  0.5004348791467900  0.7498193478582019  0.4681533400755082   T   T   T
  0.7498723765726732  0.9995160752187335  0.4679543097499469   T   T   T
  0.7500934362315452  0.2492999603807967  0.4680556470354274   T   T   T
  0.7501138763164166  0.5002409567196603  0.4681096152242558   T   T   T
  0.7500947884368051  0.7496729585951317  0.4681022696266137   T   T   T
  0.1263837634898654  0.1256645560182475  0.5338776173783989   T   T   T
  0.1244880847478087  0.3752312383985962  0.5326610270638925   T   T   T
  0.1264512867726640  0.6237844295434732  0.5339267547391863   T   T   T
  0.1252861426658728  0.8746964490287439  0.5331393628223381   T   T   T
  0.3746911895986134  0.1244836344752759  0.5330370791196749   T   T   T
  0.3753026232297837  0.3749712978752054  0.5308992164746809   T   T   T
  0.3747480748344990  0.6257485109590945  0.5329589010931737   T   T   T
  0.3749397234245249  0.8750240804264063  0.5329227655354014   T   T   T
  0.6234428529067660  0.1259583551598972  0.5337290431176973   T   T   T
  0.6260807899855252  0.3745204273737250  0.5328141035637983   T   T   T
  0.6239558216586062  0.6233195346297350  0.5339261630993791   T   T   T
  0.6249497612524931  0.8746464246786361  0.5330895349761569   T   T   T
  0.8747357083350763  0.1248364336500114  0.5331200363529652   T   T   T
  0.8749196308414071  0.3749581323734705  0.5331916414020061   T   T   T
  0.8757264070761134  0.6239411696430204  0.5334451654820750   T   T   T
  0.8750548857025284  0.8744067821640920  0.5329506099810106   T   T   T
  0.9994720267951386  0.9984935158565591  0.5982395426508059   T   T   T
  0.9986163295485251  0.2471434244621055  0.5989988584393262   T   T   T
  0.0009421445265070  0.4998766840861987  0.6001259487994848   T   T   T
  0.0000826968568310  0.7498337183787734  0.5982981108964035   T   T   T
  0.2500020415229092  0.9994106278880740  0.5985914930261589   T   T   T
  0.2506193966520350  0.2509644761714825  0.6005307086582847   T   T   T
  0.2525635876703535  0.4998275916379198  0.6007964304849148   T   T   T
  0.2504553178364514  0.7506001158744828  0.5987019244031840   T   T   T
  0.4996831701202655  0.9993413420148235  0.5984324378431960   T   T   T
  0.4993852343867890  0.2500473713275577  0.6001728502456128   T   T   T
  0.5007865719766649  0.5000521665845609  0.5995753250126983   T   T   T
  0.4999544009808390  0.7501948631842960  0.5984825696602533   T   T   T
  0.7499408533465785  0.9993106677068242  0.5981137098843818   T   T   T
  0.7494384573709666  0.2493334029121138  0.5986195595727326   T   T   T
  0.7503498138891491  0.4996456042800009  0.5986057574021071   T   T   T
  0.7504308849905548  0.7498542103161476  0.5983426964214690   T   T   T
 
  0.00000000E+00  0.00000000E+00  0.00000000E+00
  0.00000000E+00  0.00000000E+00  0.00000000E+00
  0.00000000E+00  0.00000000E+00  0.00000000E+00
  0.00000000E+00  0.00000000E+00  0.00000000E+00
  0.00000000E+00  0.00000000E+00  0.00000000E+00
  0.00000000E+00  0.00000000E+00  0.00000000E+00
  0.00000000E+00  0.00000000E+00  0.00000000E+00
  0.00000000E+00  0.00000000E+00  0.00000000E+00
  0.00000000E+00  0.00000000E+00  0.00000000E+00
  0.00000000E+00  0.00000000E+00  0.00000000E+00
  0.00000000E+00  0.00000000E+00  0.00000000E+00
  0.00000000E+00  0.00000000E+00  0.00000000E+00
  0.00000000E+00  0.00000000E+00  0.00000000E+00
  0.00000000E+00  0.00000000E+00  0.00000000E+00
  0.00000000E+00  0.00000000E+00  0.00000000E+00
  0.00000000E+00  0.00000000E+00  0.00000000E+00
  0.00000000E+00  0.00000000E+00  0.00000000E+00
  0.00000000E+00  0.00000000E+00  0.00000000E+00
  0.00000000E+00  0.00000000E+00  0.00000000E+00
  0.00000000E+00  0.00000000E+00  0.00000000E+00
  0.00000000E+00  0.00000000E+00  0.00000000E+00
  0.00000000E+00  0.00000000E+00  0.00000000E+00
  0.00000000E+00  0.00000000E+00  0.00000000E+00
  0.00000000E+00  0.00000000E+00  0.00000000E+00
  0.00000000E+00  0.00000000E+00  0.00000000E+00
  0.00000000E+00  0.00000000E+00  0.00000000E+00
  0.00000000E+00  0.00000000E+00  0.00000000E+00
  0.00000000E+00  0.00000000E+00  0.00000000E+00
  0.00000000E+00  0.00000000E+00  0.00000000E+00
  0.00000000E+00  0.00000000E+00  0.00000000E+00
  0.00000000E+00  0.00000000E+00  0.00000000E+00
  0.00000000E+00  0.00000000E+00  0.00000000E+00
  0.00000000E+00  0.00000000E+00  0.00000000E+00
  0.00000000E+00  0.00000000E+00  0.00000000E+00
  0.00000000E+00  0.00000000E+00  0.00000000E+00
  0.00000000E+00  0.00000000E+00  0.00000000E+00
  0.00000000E+00  0.00000000E+00  0.00000000E+00
  0.00000000E+00  0.00000000E+00  0.00000000E+00
  0.00000000E+00  0.00000000E+00  0.00000000E+00
  0.00000000E+00  0.00000000E+00  0.00000000E+00
  0.00000000E+00  0.00000000E+00  0.00000000E+00
  0.00000000E+00  0.00000000E+00  0.00000000E+00
  0.00000000E+00  0.00000000E+00  0.00000000E+00
  0.00000000E+00  0.00000000E+00  0.00000000E+00
  0.00000000E+00  0.00000000E+00  0.00000000E+00
  0.00000000E+00  0.00000000E+00  0.00000000E+00
  0.00000000E+00  0.00000000E+00  0.00000000E+00
  0.00000000E+00  0.00000000E+00  0.00000000E+00
  0.00000000E+00  0.00000000E+00  0.00000000E+00
  0.00000000E+00  0.00000000E+00  0.00000000E+00
  0.00000000E+00  0.00000000E+00  0.00000000E+00
  0.00000000E+00  0.00000000E+00  0.00000000E+00
  0.00000000E+00  0.00000000E+00  0.00000000E+00
  0.00000000E+00  0.00000000E+00  0.00000000E+00
  0.00000000E+00  0.00000000E+00  0.00000000E+00
  0.00000000E+00  0.00000000E+00  0.00000000E+00
  0.00000000E+00  0.00000000E+00  0.00000000E+00
  0.00000000E+00  0.00000000E+00  0.00000000E+00
  0.00000000E+00  0.00000000E+00  0.00000000E+00
  0.00000000E+00  0.00000000E+00  0.00000000E+00
  0.00000000E+00  0.00000000E+00  0.00000000E+00
  0.00000000E+00  0.00000000E+00  0.00000000E+00
  0.00000000E+00  0.00000000E+00  0.00000000E+00
  0.00000000E+00  0.00000000E+00  0.00000000E+00
  0.00000000E+00  0.00000000E+00  0.00000000E+00
  0.00000000E+00  0.00000000E+00  0.00000000E+00
  0.00000000E+00  0.00000000E+00  0.00000000E+00
  0.00000000E+00  0.00000000E+00  0.00000000E+00
  0.00000000E+00  0.00000000E+00  0.00000000E+00
  0.00000000E+00  0.00000000E+00  0.00000000E+00
  0.00000000E+00  0.00000000E+00  0.00000000E+00
