H N O Pd                                
   1.00000000000000     
    10.9819999999999993    0.0000000000000000    0.0000000000000000
     0.0000000000000000   10.9819999999999993    0.0000000000000000
     0.0000000000000000    0.0000000000000000   30.0000000000000000
   H    N    O    Pd
     3     1     2    64
Selective dynamics
Direct
  0.3779625723988504  0.5825559000738627  0.6697462359095503   T   T   T
  0.3768486846986260  0.2281264606102853  0.6752259076424177   T   T   T
  0.5116365928586348  0.6076672163730019  0.6835666951955792   T   T   T
  0.3747360081760325  0.1900151247662022  0.6437372922588053   T   T   T
  0.3742571792590085  0.0659831261957013  0.6489851646330532   T   T   T
  0.4544093876719502  0.5411901207521170  0.6778300151045252   T   T   T
  0.1249995473439967  0.1249995473439967  0.4029322681199972   F   F   F
  0.1249995473439967  0.3749986420319971  0.4029322681199972   F   F   F
  0.1249995473439967  0.6249977367199975  0.4029322681199972   F   F   F
  0.1249995473439967  0.8749968314079979  0.4029322681199972   F   F   F
  0.3749986420319971  0.1249995473439967  0.4029322681199972   F   F   F
  0.3749986420319971  0.3749986420319971  0.4029322681199972   F   F   F
  0.3749986420319971  0.6249977367199975  0.4029322681199972   F   F   F
  0.3749986420319971  0.8749968314079979  0.4029322681199972   F   F   F
  0.6249977367199975  0.1249995473439967  0.4029322681199972   F   F   F
  0.6249977367199975  0.3749986420319971  0.4029322681199972   F   F   F
  0.6249977367199975  0.6249977367199975  0.4029322681199972   F   F   F
  0.6249977367199975  0.8749968314079979  0.4029322681199972   F   F   F
  0.8749968314079979  0.1249995473439967  0.4029322681199972   F   F   F
  0.8749968314079979  0.3749986420319971  0.4029322681199972   F   F   F
  0.8749968314079979  0.6249977367199975  0.4029322681199972   F   F   F
  0.8749968314079979  0.8749968314079979  0.4029322681199972   F   F   F
  0.0001731722513312  0.9996566240565876  0.4678264623320947   T   T   T
  0.0001471029320786  0.2503185849042440  0.4680348084367929   T   T   T
  0.9998603454818664  0.4999343993694428  0.4679681600125374   T   T   T
  0.0001413263310906  0.7503115462909139  0.4682581620924680   T   T   T
  0.2499830717637119  0.9997394960569191  0.4680676385296419   T   T   T
  0.2501152248999126  0.2497171987756007  0.4680690716582668   T   T   T
  0.2497364910170683  0.4994694055016519  0.4681684619813446   T   T   T
  0.2497971551434341  0.7498948717620040  0.4680712111518865   T   T   T
  0.4999074917122563  0.9998800237608391  0.4679616861658267   T   T   T
  0.4996666615907354  0.2500534734058230  0.4681868851087457   T   T   T
  0.5002118651955311  0.4995594352879705  0.4680547273552937   T   T   T
  0.5002535054665614  0.7497868914167128  0.4682092398339608   T   T   T
  0.7499311410658038  0.9997691974560627  0.4678629276405933   T   T   T
  0.7493147335521879  0.2508148598137499  0.4681564455858001   T   T   T
  0.7497646222354148  0.5000003212074999  0.4680936939533638   T   T   T
  0.7498117064199928  0.7502585910203448  0.4682341081613182   T   T   T
  0.1238790297947007  0.1245610274387250  0.5327111937511120   T   T   T
  0.1258944433233784  0.3726776308771900  0.5336388043770283   T   T   T
  0.1245115918256979  0.6249099463423834  0.5327666980204380   T   T   T
  0.1265122098578960  0.8762389760413022  0.5338777762404666   T   T   T
  0.3747021645322021  0.1240186905049956  0.5327517321882743   T   T   T
  0.3752675729098290  0.3748475120789338  0.5333273219242958   T   T   T
  0.3755134779220850  0.6238252420001831  0.5328844043557091   T   T   T
  0.3747595231551098  0.8747558070325799  0.5331477332616937   T   T   T
  0.6259833239219612  0.1250592674747970  0.5325409911257475   T   T   T
  0.6222981787241139  0.3743682411775199  0.5342897047333711   T   T   T
  0.6248657566887557  0.6238886184830071  0.5331402453168846   T   T   T
  0.6239192460384577  0.8766248189411261  0.5335803388092577   T   T   T
  0.8750055343978095  0.1250424680020849  0.5325359351139862   T   T   T
  0.8746775805444635  0.3750501847373547  0.5328940299195564   T   T   T
  0.8750244505666398  0.6249434050348812  0.5328015689243971   T   T   T
  0.8751992777478365  0.8750005373705965  0.5328448956369652   T   T   T
  0.9978956423557633  0.0001882629223539  0.5983223722600139   T   T   T
  0.9985994672139464  0.2493023361102221  0.5983155689640565   T   T   T
  0.9994902761317738  0.5001204160922089  0.5982956515948484   T   T   T
  0.9997675918501828  0.7495130809180667  0.5981917807448015   T   T   T
  0.2445531434287146  0.9965363407440250  0.5999533554334564   T   T   T
  0.2452919519598961  0.2511023000191152  0.6003094080127855   T   T   T
  0.2481218582065202  0.5005411245112034  0.5973571884918428   T   T   T
  0.2507802135358346  0.7473328199499985  0.5984037243158281   T   T   T
  0.5054282330371832  0.9972705095100921  0.5999895403130970   T   T   T
  0.5039932021703916  0.2490564882215495  0.6000869517338843   T   T   T
  0.5013937331658662  0.4979761256459425  0.6006808185510383   T   T   T
  0.5000322590441918  0.7494565669957389  0.5972916421571138   T   T   T
  0.7519703007233134  0.0003443370723536  0.5981717465902049   T   T   T
  0.7508196090865881  0.2495306109168127  0.5982569924924216   T   T   T
  0.7519099358076474  0.5006288318734360  0.5981456578207557   T   T   T
  0.7503054987043885  0.7497024238413121  0.5982032188491569   T   T   T
 
  0.00000000E+00  0.00000000E+00  0.00000000E+00
  0.00000000E+00  0.00000000E+00  0.00000000E+00
  0.00000000E+00  0.00000000E+00  0.00000000E+00
  0.00000000E+00  0.00000000E+00  0.00000000E+00
  0.00000000E+00  0.00000000E+00  0.00000000E+00
  0.00000000E+00  0.00000000E+00  0.00000000E+00
  0.00000000E+00  0.00000000E+00  0.00000000E+00
  0.00000000E+00  0.00000000E+00  0.00000000E+00
  0.00000000E+00  0.00000000E+00  0.00000000E+00
  0.00000000E+00  0.00000000E+00  0.00000000E+00
  0.00000000E+00  0.00000000E+00  0.00000000E+00
  0.00000000E+00  0.00000000E+00  0.00000000E+00
  0.00000000E+00  0.00000000E+00  0.00000000E+00
  0.00000000E+00  0.00000000E+00  0.00000000E+00
  0.00000000E+00  0.00000000E+00  0.00000000E+00
  0.00000000E+00  0.00000000E+00  0.00000000E+00
  0.00000000E+00  0.00000000E+00  0.00000000E+00
  0.00000000E+00  0.00000000E+00  0.00000000E+00
  0.00000000E+00  0.00000000E+00  0.00000000E+00
  0.00000000E+00  0.00000000E+00  0.00000000E+00
  0.00000000E+00  0.00000000E+00  0.00000000E+00
  0.00000000E+00  0.00000000E+00  0.00000000E+00
  0.00000000E+00  0.00000000E+00  0.00000000E+00
  0.00000000E+00  0.00000000E+00  0.00000000E+00
  0.00000000E+00  0.00000000E+00  0.00000000E+00
  0.00000000E+00  0.00000000E+00  0.00000000E+00
  0.00000000E+00  0.00000000E+00  0.00000000E+00
  0.00000000E+00  0.00000000E+00  0.00000000E+00
  0.00000000E+00  0.00000000E+00  0.00000000E+00
  0.00000000E+00  0.00000000E+00  0.00000000E+00
  0.00000000E+00  0.00000000E+00  0.00000000E+00
  0.00000000E+00  0.00000000E+00  0.00000000E+00
  0.00000000E+00  0.00000000E+00  0.00000000E+00
  0.00000000E+00  0.00000000E+00  0.00000000E+00
  0.00000000E+00  0.00000000E+00  0.00000000E+00
  0.00000000E+00  0.00000000E+00  0.00000000E+00
  0.00000000E+00  0.00000000E+00  0.00000000E+00
  0.00000000E+00  0.00000000E+00  0.00000000E+00
  0.00000000E+00  0.00000000E+00  0.00000000E+00
  0.00000000E+00  0.00000000E+00  0.00000000E+00
  0.00000000E+00  0.00000000E+00  0.00000000E+00
  0.00000000E+00  0.00000000E+00  0.00000000E+00
  0.00000000E+00  0.00000000E+00  0.00000000E+00
  0.00000000E+00  0.00000000E+00  0.00000000E+00
  0.00000000E+00  0.00000000E+00  0.00000000E+00
  0.00000000E+00  0.00000000E+00  0.00000000E+00
  0.00000000E+00  0.00000000E+00  0.00000000E+00
  0.00000000E+00  0.00000000E+00  0.00000000E+00
  0.00000000E+00  0.00000000E+00  0.00000000E+00
  0.00000000E+00  0.00000000E+00  0.00000000E+00
  0.00000000E+00  0.00000000E+00  0.00000000E+00
  0.00000000E+00  0.00000000E+00  0.00000000E+00
  0.00000000E+00  0.00000000E+00  0.00000000E+00
  0.00000000E+00  0.00000000E+00  0.00000000E+00
  0.00000000E+00  0.00000000E+00  0.00000000E+00
  0.00000000E+00  0.00000000E+00  0.00000000E+00
  0.00000000E+00  0.00000000E+00  0.00000000E+00
  0.00000000E+00  0.00000000E+00  0.00000000E+00
  0.00000000E+00  0.00000000E+00  0.00000000E+00
  0.00000000E+00  0.00000000E+00  0.00000000E+00
  0.00000000E+00  0.00000000E+00  0.00000000E+00
  0.00000000E+00  0.00000000E+00  0.00000000E+00
  0.00000000E+00  0.00000000E+00  0.00000000E+00
  0.00000000E+00  0.00000000E+00  0.00000000E+00
  0.00000000E+00  0.00000000E+00  0.00000000E+00
  0.00000000E+00  0.00000000E+00  0.00000000E+00
  0.00000000E+00  0.00000000E+00  0.00000000E+00
  0.00000000E+00  0.00000000E+00  0.00000000E+00
  0.00000000E+00  0.00000000E+00  0.00000000E+00
  0.00000000E+00  0.00000000E+00  0.00000000E+00
