Pd N O                                  
   1.00000000000000     
    10.9819999999999993    0.0000000000000000    0.0000000000000000
     0.0000000000000000   10.9819999999999993    0.0000000000000000
     0.0000000000000000    0.0000000000000000   30.0000000000000000
   Pd   N    O 
    64     2     1
Selective dynamics
Direct
  0.1249995473439967  0.1249995473439967  0.4029322681199972   F   F   F
  0.1249995473439967  0.3749986420319971  0.4029322681199972   F   F   F
  0.1249995473439967  0.6249977367199975  0.4029322681199972   F   F   F
  0.1249995473439967  0.8749968314079979  0.4029322681199972   F   F   F
  0.3749986420319971  0.1249995473439967  0.4029322681199972   F   F   F
  0.3749986420319971  0.3749986420319971  0.4029322681199972   F   F   F
  0.3749986420319971  0.6249977367199975  0.4029322681199972   F   F   F
  0.3749986420319971  0.8749968314079979  0.4029322681199972   F   F   F
  0.6249977367199975  0.1249995473439967  0.4029322681199972   F   F   F
  0.6249977367199975  0.3749986420319971  0.4029322681199972   F   F   F
  0.6249977367199975  0.6249977367199975  0.4029322681199972   F   F   F
  0.6249977367199975  0.8749968314079979  0.4029322681199972   F   F   F
  0.8749968314079979  0.1249995473439967  0.4029322681199972   F   F   F
  0.8749968314079979  0.3749986420319971  0.4029322681199972   F   F   F
  0.8749968314079979  0.6249977367199975  0.4029322681199972   F   F   F
  0.8749968314079979  0.8749968314079979  0.4029322681199972   F   F   F
  0.9998475131084084 -0.0001416577635805  0.4680004613379701   T   T   T
  0.9993972636484542  0.2495751172692097  0.4677477648296706   T   T   T
  0.9993820773350399  0.5003736339901949  0.4677377126235889   T   T   T
  0.9997290108517077  0.7501205795768673  0.4679864089279063   T   T   T
  0.2507255083535402 -0.0001163945924813  0.4680158893851806   T   T   T
  0.2508975370646144  0.2493143918732085  0.4678696776250633   T   T   T
  0.2508488506560257  0.5006840926293824  0.4678664984655164   T   T   T
  0.2507014722025074  0.7501838876423504  0.4680050280168594   T   T   T
  0.4999867303747733  0.0006776851262891  0.4684017794551657   T   T   T
  0.4999586839951436  0.2501443213677088  0.4683899497933694   T   T   T
  0.4999398537010861  0.4999092942573395  0.4683912113703202   T   T   T
  0.4999112058246084  0.7494081619018572  0.4684068204001297   T   T   T
  0.7495663173671959 -0.0001180376786953  0.4679021928190094   T   T   T
  0.7490628546756128  0.2494813993203203  0.4680522001919741   T   T   T
  0.7490497579902661  0.5005094683524013  0.4680567808084262   T   T   T
  0.7495502223333187  0.7501193914308916  0.4679084975565863   T   T   T
  0.1252915409720578  0.1237641982424750  0.5325524975528286   T   T   T
  0.1243934214709078  0.3750305287371681  0.5305705551201395   T   T   T
  0.1252052621908030  0.6261539492087040  0.5325219628852977   T   T   T
  0.1250888016008205  0.8750374775165113  0.5328902220288471   T   T   T
  0.3749659586610450  0.1274024251809144  0.5347671292401701   T   T   T
  0.3757860166682281  0.3750331221157823  0.5333863132751434   T   T   T
  0.3748874307452787  0.6227319659315432  0.5347439285876483   T   T   T
  0.3749854011052977  0.8750389474879108  0.5331720624737250   T   T   T
  0.6236784344834931  0.1257532871520551  0.5339931663116618   T   T   T
  0.6240099327900975  0.3750429196078860  0.5337565923479541   T   T   T
  0.6235623278102689  0.6243041438917574  0.5339995157789835   T   T   T
  0.6249401011864720  0.8750788376432722  0.5330307478556685   T   T   T
  0.8754796339199437  0.1259156101742133  0.5331776348152367   T   T   T
  0.8733162144809344  0.3749470058096329  0.5324911816544803   T   T   T
  0.8753651297744559  0.6240178428790716  0.5331664979724502   T   T   T
  0.8746609464033470  0.8749836896005778  0.5328402238363478   T   T   T
  0.9996936142492169 -0.0002374828634813  0.5981311999248845   T   T   T
  0.9991733438086046  0.2504260819998341  0.6002995010495233   T   T   T
 -0.0009603822610499  0.4994155258162560  0.6002911361017547   T   T   T
  0.9996049774786395  0.7500992770966973  0.5981214855797071   T   T   T
  0.2494007355166411  0.9991698246907285  0.5986431049033031   T   T   T
  0.2455237458141163  0.2499632084160186  0.6001694641009581   T   T   T
  0.2453038769052701  0.5001556156062378  0.6001479575811662   T   T   T
  0.2493041453213695  0.7508800146736962  0.5986184442025437   T   T   T
  0.5002696572944036  0.9982637468609833  0.5988578303794395   T   T   T
  0.4987830247971048  0.2454290301278597  0.6025027720964935   T   T   T
  0.4985795952965009  0.5047722626849233  0.6024470430360370   T   T   T
  0.5001486827440011  0.7519068673069617  0.5988375661939970   T   T   T
  0.7504609816421353  0.9992221074408290  0.5984476464322314   T   T   T
  0.7518070710072973  0.2495256589557862  0.5983830915266648   T   T   T
  0.7516409538029254  0.5004723483366416  0.5983810236041135   T   T   T
  0.7503663756548371  0.7508155366698503  0.5984083176515551   T   T   T
  0.5018412248340087  0.3752369444788695  0.6468401925848940   T   T   T
  0.1217898419485540  0.3750544793776462  0.6199383624034025   T   T   T
  0.4890315940704572  0.3753103887984275  0.6864130806666322   T   T   T
 
  0.00000000E+00  0.00000000E+00  0.00000000E+00
  0.00000000E+00  0.00000000E+00  0.00000000E+00
  0.00000000E+00  0.00000000E+00  0.00000000E+00
  0.00000000E+00  0.00000000E+00  0.00000000E+00
  0.00000000E+00  0.00000000E+00  0.00000000E+00
  0.00000000E+00  0.00000000E+00  0.00000000E+00
  0.00000000E+00  0.00000000E+00  0.00000000E+00
  0.00000000E+00  0.00000000E+00  0.00000000E+00
  0.00000000E+00  0.00000000E+00  0.00000000E+00
  0.00000000E+00  0.00000000E+00  0.00000000E+00
  0.00000000E+00  0.00000000E+00  0.00000000E+00
  0.00000000E+00  0.00000000E+00  0.00000000E+00
  0.00000000E+00  0.00000000E+00  0.00000000E+00
  0.00000000E+00  0.00000000E+00  0.00000000E+00
  0.00000000E+00  0.00000000E+00  0.00000000E+00
  0.00000000E+00  0.00000000E+00  0.00000000E+00
  0.00000000E+00  0.00000000E+00  0.00000000E+00
  0.00000000E+00  0.00000000E+00  0.00000000E+00
  0.00000000E+00  0.00000000E+00  0.00000000E+00
  0.00000000E+00  0.00000000E+00  0.00000000E+00
  0.00000000E+00  0.00000000E+00  0.00000000E+00
  0.00000000E+00  0.00000000E+00  0.00000000E+00
  0.00000000E+00  0.00000000E+00  0.00000000E+00
  0.00000000E+00  0.00000000E+00  0.00000000E+00
  0.00000000E+00  0.00000000E+00  0.00000000E+00
  0.00000000E+00  0.00000000E+00  0.00000000E+00
  0.00000000E+00  0.00000000E+00  0.00000000E+00
  0.00000000E+00  0.00000000E+00  0.00000000E+00
  0.00000000E+00  0.00000000E+00  0.00000000E+00
  0.00000000E+00  0.00000000E+00  0.00000000E+00
  0.00000000E+00  0.00000000E+00  0.00000000E+00
  0.00000000E+00  0.00000000E+00  0.00000000E+00
  0.00000000E+00  0.00000000E+00  0.00000000E+00
  0.00000000E+00  0.00000000E+00  0.00000000E+00
  0.00000000E+00  0.00000000E+00  0.00000000E+00
  0.00000000E+00  0.00000000E+00  0.00000000E+00
  0.00000000E+00  0.00000000E+00  0.00000000E+00
  0.00000000E+00  0.00000000E+00  0.00000000E+00
  0.00000000E+00  0.00000000E+00  0.00000000E+00
  0.00000000E+00  0.00000000E+00  0.00000000E+00
  0.00000000E+00  0.00000000E+00  0.00000000E+00
  0.00000000E+00  0.00000000E+00  0.00000000E+00
  0.00000000E+00  0.00000000E+00  0.00000000E+00
  0.00000000E+00  0.00000000E+00  0.00000000E+00
  0.00000000E+00  0.00000000E+00  0.00000000E+00
  0.00000000E+00  0.00000000E+00  0.00000000E+00
  0.00000000E+00  0.00000000E+00  0.00000000E+00
  0.00000000E+00  0.00000000E+00  0.00000000E+00
  0.00000000E+00  0.00000000E+00  0.00000000E+00
  0.00000000E+00  0.00000000E+00  0.00000000E+00
  0.00000000E+00  0.00000000E+00  0.00000000E+00
  0.00000000E+00  0.00000000E+00  0.00000000E+00
  0.00000000E+00  0.00000000E+00  0.00000000E+00
  0.00000000E+00  0.00000000E+00  0.00000000E+00
  0.00000000E+00  0.00000000E+00  0.00000000E+00
  0.00000000E+00  0.00000000E+00  0.00000000E+00
  0.00000000E+00  0.00000000E+00  0.00000000E+00
  0.00000000E+00  0.00000000E+00  0.00000000E+00
  0.00000000E+00  0.00000000E+00  0.00000000E+00
  0.00000000E+00  0.00000000E+00  0.00000000E+00
  0.00000000E+00  0.00000000E+00  0.00000000E+00
  0.00000000E+00  0.00000000E+00  0.00000000E+00
  0.00000000E+00  0.00000000E+00  0.00000000E+00
  0.00000000E+00  0.00000000E+00  0.00000000E+00
  0.00000000E+00  0.00000000E+00  0.00000000E+00
  0.00000000E+00  0.00000000E+00  0.00000000E+00
  0.00000000E+00  0.00000000E+00  0.00000000E+00
