Pd N O                                  
   1.00000000000000     
    10.9819999999999993    0.0000000000000000    0.0000000000000000
     0.0000000000000000   10.9819999999999993    0.0000000000000000
     0.0000000000000000    0.0000000000000000   30.0000000000000000
   Pd   N    O 
    64     1     1
Selective dynamics
Direct
  0.1249712392850029  0.1249969392209991  0.4028970465519990   F   F   F
  0.1249695991050004  0.3749986643840018  0.4028971330900006   F   F   F
  0.1249714292110014  0.6250003460170035  0.4028970601610027   F   F   F
  0.1249728954160005  0.8749967847600004  0.4028967210349990   F   F   F
  0.3749734685469974  0.1249885935639981  0.4028790625269991   F   F   F
  0.3749720280779982  0.3749986913529995  0.4028775126470023   F   F   F
  0.3749735231279985  0.6250085915109977  0.4028791599100003   F   F   F
  0.3749760242129980  0.8749966854839997  0.4028828102930007   F   F   F
  0.6250102487289979  0.1249908233059998  0.4028822324349974   F   F   F
  0.6250106392719985  0.3749986696070025  0.4028816950170011   F   F   F
  0.6250102198340031  0.6250064644040023  0.4028822179540015   F   F   F
  0.6250097394670036  0.8749967670529983  0.4028845443069997   F   F   F
  0.8750054536279990  0.1249985483409972  0.4028991402569986   F   F   F
  0.8750037989649968  0.3749986619870000  0.4029002455529991   F   F   F
  0.8750055270960004  0.6249987248929969  0.4028991195559968   F   F   F
  0.8750069210690015  0.8749968274030024  0.4028985079449967   F   F   F
  0.0000120661609984  0.0000226138210024  0.4680287052850005   F   F   F
  0.9999755513269974  0.2498960125129983  0.4679669886140019   F   F   F
  0.9999462910589969  0.5000669337030033  0.4679222720340022   F   F   F
  0.9999994860479973  0.7499492974080013  0.4680388209250026   F   F   F
  0.2500310372769974  0.0000005965620034  0.4679030177800030   F   F   F
  0.2502088491609982  0.2498133117500032  0.4680443717060001   F   F   F
  0.2501636235259994  0.5000549615710028  0.4679866374110020   F   F   F
  0.2500730753209979  0.7499598021840015  0.4678888093740028   F   F   F
  0.5003372585260024  0.0003640635530004  0.4681648542229979   F   F   F
  0.5000331574039976  0.2501346295950029  0.4682094946689972   F   F   F
  0.5000283665889995  0.4998123500050013  0.4681648773879985   F   F   F
  0.5003239508199968  0.7496333096970034  0.4681898815739984   F   F   F
  0.7498644878189964  0.9999839582240000  0.4679630939779997   F   F   F
  0.7495664086239984  0.2496861062650026  0.4680639548300007   F   F   F
  0.7495981243299994  0.5003180343249980  0.4680252934049989   F   F   F
  0.7497984787810026  0.7500532332740022  0.4680086569820006   F   F   F
  0.1256325805860001  0.1254658122729992  0.5330850625289969   F   F   F
  0.1248907347389974  0.3749997473340017  0.5327626638540011   F   F   F
  0.1256433321909967  0.6244431044819976  0.5330358681000007   F   F   F
  0.1250347231920017  0.8750145206450028  0.5328018327059993   F   F   F
  0.3753524802179982  0.1246889294730025  0.5331365670930026   F   F   F
  0.3755722283179992  0.3749670586270000  0.5328353825790018   F   F   F
  0.3753694690789970  0.6251276564480008  0.5331008969709998   F   F   F
  0.3750440902170027  0.8750044956729965  0.5328344807729977   F   F   F
  0.6238657344599972  0.1262351490959972  0.5338741323139971   F   F   F
  0.6256648588299996  0.3750698650350017  0.5331186370050034   F   F   F
  0.6238350227930027  0.6236993091689982  0.5338532979889976   F   F   F
  0.6250937792430022  0.8750795186779996  0.5330566010560034   F   F   F
  0.8747833222070014  0.1248518653739978  0.5328760381580011   F   F   F
  0.8751276809339998  0.3750140866659990  0.5327588096229974   F   F   F
  0.8748468964580027  0.6250549006430006  0.5328578965299968   F   F   F
  0.8749403916599974  0.8750598795310012  0.5329184607309969   F   F   F
  0.0002848713839967  0.0000296474660004  0.5979647243160002   F   F   F
  0.0002579966989984  0.2500870734490022  0.5981177782749967   F   F   F
  0.0004817823770011  0.4999241361649993  0.5981218860779975   F   F   F
  0.0001995748329975  0.7499415347569993  0.5979747123230013   F   F   F
  0.2500085389930007  0.9995357759190000  0.5981846715050025   F   F   F
  0.2489696300869966  0.2501281190070017  0.5985789390930023   F   F   F
  0.2489927734030033  0.4999190305859997  0.5985819369609970   F   F   F
  0.2499840591470033  0.7504066179640034  0.5980453604190004   F   F   F
  0.4998365598730032  0.9992025960940012  0.5984045968659970   F   F   F
  0.5006297824769987  0.2481881971470017  0.6010375615669972   F   F   F
  0.5005351898300034  0.5015086354409988  0.6010340053219991   F   F   F
  0.4997889967809996  0.7506571819030015  0.5983902194300015   F   F   F
  0.7504835790020010  0.9997614656729965  0.5982958996340031   F   F   F
  0.7518963279350004  0.2500136557589983  0.5982229740150018   F   F   F
  0.7520588321879984  0.5000205347179971  0.5982779192179990   F   F   F
  0.7503714433250011  0.7502573477249967  0.5981148993810024   F   F   F
  0.4260645284459983  0.3746777748489976  0.6413496827239982   T   T   T
  0.4319327874730021  0.3744425956080022  0.6808300566563340   T   T   T
 
  0.00000000E+00  0.00000000E+00  0.00000000E+00
  0.00000000E+00  0.00000000E+00  0.00000000E+00
  0.00000000E+00  0.00000000E+00  0.00000000E+00
  0.00000000E+00  0.00000000E+00  0.00000000E+00
  0.00000000E+00  0.00000000E+00  0.00000000E+00
  0.00000000E+00  0.00000000E+00  0.00000000E+00
  0.00000000E+00  0.00000000E+00  0.00000000E+00
  0.00000000E+00  0.00000000E+00  0.00000000E+00
  0.00000000E+00  0.00000000E+00  0.00000000E+00
  0.00000000E+00  0.00000000E+00  0.00000000E+00
  0.00000000E+00  0.00000000E+00  0.00000000E+00
  0.00000000E+00  0.00000000E+00  0.00000000E+00
  0.00000000E+00  0.00000000E+00  0.00000000E+00
  0.00000000E+00  0.00000000E+00  0.00000000E+00
  0.00000000E+00  0.00000000E+00  0.00000000E+00
  0.00000000E+00  0.00000000E+00  0.00000000E+00
  0.00000000E+00  0.00000000E+00  0.00000000E+00
  0.00000000E+00  0.00000000E+00  0.00000000E+00
  0.00000000E+00  0.00000000E+00  0.00000000E+00
  0.00000000E+00  0.00000000E+00  0.00000000E+00
  0.00000000E+00  0.00000000E+00  0.00000000E+00
  0.00000000E+00  0.00000000E+00  0.00000000E+00
  0.00000000E+00  0.00000000E+00  0.00000000E+00
  0.00000000E+00  0.00000000E+00  0.00000000E+00
  0.00000000E+00  0.00000000E+00  0.00000000E+00
  0.00000000E+00  0.00000000E+00  0.00000000E+00
  0.00000000E+00  0.00000000E+00  0.00000000E+00
  0.00000000E+00  0.00000000E+00  0.00000000E+00
  0.00000000E+00  0.00000000E+00  0.00000000E+00
  0.00000000E+00  0.00000000E+00  0.00000000E+00
  0.00000000E+00  0.00000000E+00  0.00000000E+00
  0.00000000E+00  0.00000000E+00  0.00000000E+00
  0.00000000E+00  0.00000000E+00  0.00000000E+00
  0.00000000E+00  0.00000000E+00  0.00000000E+00
  0.00000000E+00  0.00000000E+00  0.00000000E+00
  0.00000000E+00  0.00000000E+00  0.00000000E+00
  0.00000000E+00  0.00000000E+00  0.00000000E+00
  0.00000000E+00  0.00000000E+00  0.00000000E+00
  0.00000000E+00  0.00000000E+00  0.00000000E+00
  0.00000000E+00  0.00000000E+00  0.00000000E+00
  0.00000000E+00  0.00000000E+00  0.00000000E+00
  0.00000000E+00  0.00000000E+00  0.00000000E+00
  0.00000000E+00  0.00000000E+00  0.00000000E+00
  0.00000000E+00  0.00000000E+00  0.00000000E+00
  0.00000000E+00  0.00000000E+00  0.00000000E+00
  0.00000000E+00  0.00000000E+00  0.00000000E+00
  0.00000000E+00  0.00000000E+00  0.00000000E+00
  0.00000000E+00  0.00000000E+00  0.00000000E+00
  0.00000000E+00  0.00000000E+00  0.00000000E+00
  0.00000000E+00  0.00000000E+00  0.00000000E+00
  0.00000000E+00  0.00000000E+00  0.00000000E+00
  0.00000000E+00  0.00000000E+00  0.00000000E+00
  0.00000000E+00  0.00000000E+00  0.00000000E+00
  0.00000000E+00  0.00000000E+00  0.00000000E+00
  0.00000000E+00  0.00000000E+00  0.00000000E+00
  0.00000000E+00  0.00000000E+00  0.00000000E+00
  0.00000000E+00  0.00000000E+00  0.00000000E+00
  0.00000000E+00  0.00000000E+00  0.00000000E+00
  0.00000000E+00  0.00000000E+00  0.00000000E+00
  0.00000000E+00  0.00000000E+00  0.00000000E+00
  0.00000000E+00  0.00000000E+00  0.00000000E+00
  0.00000000E+00  0.00000000E+00  0.00000000E+00
  0.00000000E+00  0.00000000E+00  0.00000000E+00
  0.00000000E+00  0.00000000E+00  0.00000000E+00
  0.00000000E+00  0.00000000E+00  0.00000000E+00
  0.00000000E+00  0.00000000E+00  0.00000000E+00
