Pd N O
1.0
 10.982000000000   0.000000000000   0.000000000000
  0.000000000000  10.982000000000   0.000000000000
  0.000000000000   0.000000000000  30.000000000000
Pd N O
 64   1   1
Selective dynamics
Direct
  0.124971239285   0.124996939221   0.402897046552  F F F
  0.124969599105   0.374998664384   0.402897133090  F F F
  0.124971429211   0.625000346017   0.402897060161  F F F
  0.124972895416   0.874996784760   0.402896721035  F F F
  0.374973468547   0.124988593564   0.402879062527  F F F
  0.374972028078   0.374998691353   0.402877512647  F F F
  0.374973523128   0.625008591511   0.402879159910  F F F
  0.374976024213   0.874996685484   0.402882810293  F F F
  0.625010248729   0.124990823306   0.402882232435  F F F
  0.625010639272   0.374998669607   0.402881695017  F F F
  0.625010219834   0.625006464404   0.402882217954  F F F
  0.625009739467   0.874996767053   0.402884544307  F F F
  0.875005453628   0.124998548341   0.402899140257  F F F
  0.875003798965   0.374998661987   0.402900245553  F F F
  0.875005527096   0.624998724893   0.402899119556  F F F
  0.875006921069   0.874996827403   0.402898507945  F F F
  0.000012066161   0.000022613821   0.468028705285  F F F
  0.999975551327   0.249896012513   0.467966988614  F F F
  0.999946291059   0.500066933703   0.467922272034  F F F
  0.999999486048   0.749949297408   0.468038820925  F F F
  0.250031037277   0.000000596562   0.467903017780  F F F
  0.250208849161   0.249813311750   0.468044371706  F F F
  0.250163623526   0.500054961571   0.467986637411  F F F
  0.250073075321   0.749959802184   0.467888809374  F F F
  0.500337258526   0.000364063553   0.468164854223  F F F
  0.500033157404   0.250134629595   0.468209494669  F F F
  0.500028366589   0.499812350005   0.468164877388  F F F
  0.500323950820   0.749633309697   0.468189881574  F F F
  0.749864487819   0.999983958224   0.467963093978  F F F
  0.749566408624   0.249686106265   0.468063954830  F F F
  0.749598124330   0.500318034325   0.468025293405  F F F
  0.749798478781   0.750053233274   0.468008656982  F F F
  0.125632580586   0.125465812273   0.533085062529  F F F
  0.124890734739   0.374999747334   0.532762663854  F F F
  0.125643332191   0.624443104482   0.533035868100  F F F
  0.125034723192   0.875014520645   0.532801832706  F F F
  0.375352480218   0.124688929473   0.533136567093  F F F
  0.375572228318   0.374967058627   0.532835382579  F F F
  0.375369469079   0.625127656448   0.533100896971  F F F
  0.375044090217   0.875004495673   0.532834480773  F F F
  0.623865734460   0.126235149096   0.533874132314  F F F
  0.625664858830   0.375069865035   0.533118637005  F F F
  0.623835022793   0.623699309169   0.533853297989  F F F
  0.625093779243   0.875079518678   0.533056601056  F F F
  0.874783322207   0.124851865374   0.532876038158  F F F
  0.875127680934   0.375014086666   0.532758809623  F F F
  0.874846896458   0.625054900643   0.532857896530  F F F
  0.874940391660   0.875059879531   0.532918460731  F F F
  0.000284871384   0.000029647466   0.597964724316  F F F
  0.000257996699   0.250087073449   0.598117778275  F F F
  0.000481782377   0.499924136165   0.598121886078  F F F
  0.000199574833   0.749941534757   0.597974712323  F F F
  0.250008538993   0.999535775919   0.598184671505  F F F
  0.248969630087   0.250128119007   0.598578939093  F F F
  0.248992773403   0.499919030586   0.598581936961  F F F
  0.249984059147   0.750406617964   0.598045360419  F F F
  0.499836559873   0.999202596094   0.598404596866  F F F
  0.500629782477   0.248188197147   0.601037561567  F F F
  0.500535189830   0.501508635441   0.601034005322  F F F
  0.499788996781   0.750657181903   0.598390219430  F F F
  0.750483579002   0.999761465673   0.598295899634  F F F
  0.751896327935   0.250013655759   0.598222974015  F F F
  0.752058832188   0.500020534718   0.598277919218  F F F
  0.750371443325   0.750257347725   0.598114899381  F F F
  0.426064528446   0.374677774849   0.641349682724  T T T
  0.431932787473   0.374442595608   0.681496723323  T T T
