Cu N O                                  
   1.00000000000000     
    10.0912000000000006    0.0000000000000000    0.0000000000000000
     0.0000000000000000   10.0912000000000006    0.0000000000000000
     0.0000000000000000    0.0000000000000000   30.0000000000000000
   Cu   N    O 
    64     1     1
Selective dynamics
Direct
  0.1249079195480007  0.1249947580609998  0.4103686931210007   F   F   F
  0.1249044900400023  0.3749995979109997  0.4103708417399972   F   F   F
  0.1249085555310003  0.6250040152170016  0.4103688629310014   F   F   F
  0.1249095091439969  0.8749984584620023  0.4103652029860001   F   F   F
  0.3749137977659984  0.1249651459970025  0.4103065617989969   F   F   F
  0.3749088044920015  0.3749996798280009  0.4103047451419997   F   F   F
  0.3749140264269997  0.6250335456839977  0.4103068577310012   F   F   F
  0.3749221134450025  0.8749983412780011  0.4103163253540032   F   F   F
  0.6250622912009973  0.1249686660929967  0.4103115805090027   F   F   F
  0.6250645033129985  0.3749996482800029  0.4103109116989998   F   F   F
  0.6250622306160025  0.6250304432030021  0.4103115974630001   F   F   F
  0.6250581302480001  0.8749987356080027  0.4103190800010026   F   F   F
  0.8750551888600029  0.1249973090240033  0.4103723804459989   F   F   F
  0.8750532365099986  0.3749995486619966  0.4103757511510011   F   F   F
  0.8750556341709981  0.6250019430519984  0.4103722509070025   F   F   F
  0.8750589116409984  0.8749988709559986  0.4103682689650014   F   F   F
  0.0000627437956454  0.9998088314114186  0.4695415069165677   T   T   T
  0.9999866962018834  0.2500061637751707  0.4695322726659807   T   T   T
  0.9999875095878552  0.5000176262168494  0.4695334339268210   T   T   T
  0.0000654368377946  0.7502104525842708  0.4695420228193202   T   T   T
  0.2504854269187221  0.0000897871849422  0.4697238701183646   T   T   T
  0.2502143732427367  0.2499814759991295  0.4695090400479713   T   T   T
  0.2502249444910059  0.5000421619906172  0.4695058050748450   T   T   T
  0.2504631826656821  0.7499345420557818  0.4697260773697215   T   T   T
  0.4998924003124155  0.9999212483885863  0.4696682480310797   T   T   T
  0.4998110126288119  0.2496775814302317  0.4695373497382441   T   T   T
  0.4998182689327096  0.5003311239466814  0.4695365288664208   T   T   T
  0.4998854577339166  0.7500912433759340  0.4696684459098515   T   T   T
  0.7494013135598694  0.0000112906764639  0.4696995941902540   T   T   T
  0.7498296621925064  0.2497955228438075  0.4693455619223849   T   T   T
  0.7498240469853675  0.5002400499895990  0.4693403333164837   T   T   T
  0.7494223023962358  0.7500050034320233  0.4697018698253582   T   T   T
  0.1249989375421341  0.1247585894873889  0.5300330765702330   T   T   T
  0.1252074615294536  0.3750206353357167  0.5299472785512701   T   T   T
  0.1250068050198260  0.6252663508362291  0.5300351371285643   T   T   T
  0.1250544074240041  0.8750203146311248  0.5303373955349041   T   T   T
  0.3761121137890474  0.1263073168103725  0.5307193238041276   T   T   T
  0.3761165930238865  0.3750205872768421  0.5301783037493513   T   T   T
  0.3761286123177250  0.6236969309044813  0.5307218564857804   T   T   T
  0.3750305281362007  0.8750113215150324  0.5302571977322583   T   T   T
  0.6238111642188213  0.1263679390102575  0.5306106485128815   T   T   T
  0.6246649260595815  0.3750155590657064  0.5295335443437339   T   T   T
  0.6238071648697450  0.6236252948849272  0.5306114965522682   T   T   T
  0.6248794069455796  0.8750074842196267  0.5302014859282067   T   T   T
  0.8748545395469230  0.1247223090923759  0.5299855035401403   T   T   T
  0.8743462593964875  0.3750150360582995  0.5299996329620492   T   T   T
  0.8748566131819067  0.6253027592129401  0.5299881120052431   T   T   T
  0.8748728655406194  0.8750197015882817  0.5302744222041521   T   T   T
  0.9998987855333468  0.0003577107514680  0.5893968666282858   T   T   T
  0.9999194720132907  0.2502358450125592  0.5890983522287492   T   T   T
  0.9999161278222209  0.4997992785117571  0.5891035933141017   T   T   T
  0.9999006216747903  0.7497055315142857  0.5893952296322507   T   T   T
  0.2501822071450640 -0.0000124371301260  0.5894522052139096   T   T   T
  0.2481575673807571  0.2494959598848903  0.5890971308483069   T   T   T
  0.2481693097660989  0.5005639243078561  0.5890973501446684   T   T   T
  0.2501803531294558  0.7500801975220346  0.5894583683305601   T   T   T
  0.4999780211788790  0.9985685391045370  0.5897141820920498   T   T   T
  0.4988769425344827  0.2450287240264619  0.5926608650912575   T   T   T
  0.4988992358539908  0.5050117329355522  0.5926767950883534   T   T   T
  0.4999749864987590  0.7514369921750907  0.5897032823034029   T   T   T
  0.7496920264733891  0.9997917531488000  0.5893684625841595   T   T   T
  0.7518525626508050  0.2488786210469749  0.5890431877085718   T   T   T
  0.7518732866171669  0.5011602588233880  0.5890470886505079   T   T   T
  0.7496892623032693  0.7502363765660550  0.5893729304622154   T   T   T
  0.5233357395775189  0.3750396454025043  0.6391523719011031   T   T   T
  0.5274796330394452  0.3749618339065125  0.6794263260729957   T   T   T
 
  0.00000000E+00  0.00000000E+00  0.00000000E+00
  0.00000000E+00  0.00000000E+00  0.00000000E+00
  0.00000000E+00  0.00000000E+00  0.00000000E+00
  0.00000000E+00  0.00000000E+00  0.00000000E+00
  0.00000000E+00  0.00000000E+00  0.00000000E+00
  0.00000000E+00  0.00000000E+00  0.00000000E+00
  0.00000000E+00  0.00000000E+00  0.00000000E+00
  0.00000000E+00  0.00000000E+00  0.00000000E+00
  0.00000000E+00  0.00000000E+00  0.00000000E+00
  0.00000000E+00  0.00000000E+00  0.00000000E+00
  0.00000000E+00  0.00000000E+00  0.00000000E+00
  0.00000000E+00  0.00000000E+00  0.00000000E+00
  0.00000000E+00  0.00000000E+00  0.00000000E+00
  0.00000000E+00  0.00000000E+00  0.00000000E+00
  0.00000000E+00  0.00000000E+00  0.00000000E+00
  0.00000000E+00  0.00000000E+00  0.00000000E+00
  0.00000000E+00  0.00000000E+00  0.00000000E+00
  0.00000000E+00  0.00000000E+00  0.00000000E+00
  0.00000000E+00  0.00000000E+00  0.00000000E+00
  0.00000000E+00  0.00000000E+00  0.00000000E+00
  0.00000000E+00  0.00000000E+00  0.00000000E+00
  0.00000000E+00  0.00000000E+00  0.00000000E+00
  0.00000000E+00  0.00000000E+00  0.00000000E+00
  0.00000000E+00  0.00000000E+00  0.00000000E+00
  0.00000000E+00  0.00000000E+00  0.00000000E+00
  0.00000000E+00  0.00000000E+00  0.00000000E+00
  0.00000000E+00  0.00000000E+00  0.00000000E+00
  0.00000000E+00  0.00000000E+00  0.00000000E+00
  0.00000000E+00  0.00000000E+00  0.00000000E+00
  0.00000000E+00  0.00000000E+00  0.00000000E+00
  0.00000000E+00  0.00000000E+00  0.00000000E+00
  0.00000000E+00  0.00000000E+00  0.00000000E+00
  0.00000000E+00  0.00000000E+00  0.00000000E+00
  0.00000000E+00  0.00000000E+00  0.00000000E+00
  0.00000000E+00  0.00000000E+00  0.00000000E+00
  0.00000000E+00  0.00000000E+00  0.00000000E+00
  0.00000000E+00  0.00000000E+00  0.00000000E+00
  0.00000000E+00  0.00000000E+00  0.00000000E+00
  0.00000000E+00  0.00000000E+00  0.00000000E+00
  0.00000000E+00  0.00000000E+00  0.00000000E+00
  0.00000000E+00  0.00000000E+00  0.00000000E+00
  0.00000000E+00  0.00000000E+00  0.00000000E+00
  0.00000000E+00  0.00000000E+00  0.00000000E+00
  0.00000000E+00  0.00000000E+00  0.00000000E+00
  0.00000000E+00  0.00000000E+00  0.00000000E+00
  0.00000000E+00  0.00000000E+00  0.00000000E+00
  0.00000000E+00  0.00000000E+00  0.00000000E+00
  0.00000000E+00  0.00000000E+00  0.00000000E+00
  0.00000000E+00  0.00000000E+00  0.00000000E+00
  0.00000000E+00  0.00000000E+00  0.00000000E+00
  0.00000000E+00  0.00000000E+00  0.00000000E+00
  0.00000000E+00  0.00000000E+00  0.00000000E+00
  0.00000000E+00  0.00000000E+00  0.00000000E+00
  0.00000000E+00  0.00000000E+00  0.00000000E+00
  0.00000000E+00  0.00000000E+00  0.00000000E+00
  0.00000000E+00  0.00000000E+00  0.00000000E+00
  0.00000000E+00  0.00000000E+00  0.00000000E+00
  0.00000000E+00  0.00000000E+00  0.00000000E+00
  0.00000000E+00  0.00000000E+00  0.00000000E+00
  0.00000000E+00  0.00000000E+00  0.00000000E+00
  0.00000000E+00  0.00000000E+00  0.00000000E+00
  0.00000000E+00  0.00000000E+00  0.00000000E+00
  0.00000000E+00  0.00000000E+00  0.00000000E+00
  0.00000000E+00  0.00000000E+00  0.00000000E+00
  0.00000000E+00  0.00000000E+00  0.00000000E+00
  0.00000000E+00  0.00000000E+00  0.00000000E+00
