Cu N O H
1.0
 10.091200000000   0.000000000000   0.000000000000
  0.000000000000  10.091200000000   0.000000000000
  0.000000000000   0.000000000000  30.000000000000
Cu N O H
 64   1   1   1
Selective dynamics
Direct
  0.124884347633   0.124978111405   0.410099928929  F F F
  0.124882081767   0.374999384569   0.410096329356  F F F
  0.124884615413   0.625021703789   0.410099412922  F F F
  0.124884700793   0.874999778755   0.410098017195  F F F
  0.374971132761   0.124947492852   0.410011045150  F F F
  0.374974804913   0.374999220792   0.409996276781  F F F
  0.374971227119   0.625052280468   0.410010426864  F F F
  0.374968230541   0.874999839193   0.410023409836  F F F
  0.625152096748   0.124963821602   0.410050514785  F F F
  0.625162001342   0.374999235226   0.410043047559  F F F
  0.625152319498   0.625036242625   0.410049715588  F F F
  0.625143525650   0.875000157564   0.410054851368  F F F
  0.875069920880   0.124995111685   0.410139563727  F F F
  0.875071772007   0.374999315566   0.410142270603  F F F
  0.875070266360   0.625004938064   0.410138863157  F F F
  0.875069135433   0.875000095700   0.410129714054  F F F
  0.000390965536   0.999939995915   0.469361842475  F F F
  0.000276046178   0.249826941892   0.469276791706  F F F
  0.000282839333   0.500171388219   0.469272942705  F F F
  0.000391376143   0.750053052015   0.469364877392  F F F
  0.250552567218   0.000008229655   0.469548200929  F F F
  0.250453792940   0.249654588983   0.469235582834  F F F
  0.250452351352   0.500328295179   0.469246338977  F F F
  0.250559956313   0.749976422443   0.469544350692  F F F
  0.499791811546   0.000061879080   0.469563229543  F F F
  0.500413004001   0.249548648961   0.469199473598  F F F
  0.500414143127   0.500438672766   0.469194632240  F F F
  0.499789021360   0.749921541671   0.469564803146  F F F
  0.749833251534   0.999832744919   0.469417589395  F F F
  0.749982433703   0.250014979304   0.469351965024  F F F
  0.749984711128   0.499980128193   0.469356627593  F F F
  0.749830713693   0.750161801190   0.469413827614  F F F
  0.126004020479   0.125204506259   0.529988394545  F F F
  0.126221664805   0.374993924017   0.529412333296  F F F
  0.126018683105   0.624767447313   0.529992541891  F F F
  0.125206100436   0.874991290297   0.530007195482  F F F
  0.376148933007   0.127572737816   0.530792268912  F F F
  0.376485801071   0.374986711022   0.529014933730  F F F
  0.376157005826   0.622397737269   0.530797105589  F F F
  0.375164637454   0.874983124320   0.529992794062  F F F
  0.624782507563   0.125947602170   0.530261194332  F F F
  0.624155482621   0.374984284641   0.530024805107  F F F
  0.624790467986   0.624015928952   0.530261817696  F F F
  0.625055623781   0.874982487912   0.530021070381  F F F
  0.875748341682   0.124339164258   0.529623100130  F F F
  0.875887460861   0.374999184713   0.529419714074  F F F
  0.875756143085   0.625649502446   0.529624065863  F F F
  0.875064470632   0.874996555321   0.530123469497  F F F
  0.000429414420   0.000189908729   0.589267260619  F F F
  0.999840550553   0.250045917431   0.589032991633  F F F
  0.999846248735   0.499947493398   0.589034351995  F F F
  0.000445063655   0.749803235476   0.589265049995  F F F
  0.250115681859   0.999899496089   0.589299586651  F F F
  0.246301671276   0.249268502094   0.589716500663  F F F
  0.246323479170   0.500698673195   0.589731073781  F F F
  0.250126995713   0.750073570398   0.589301912798  F F F
  0.500021574438   0.999152096920   0.589437568661  F F F
  0.506440809165   0.245808027433   0.591909174012  F F F
  0.506447855182   0.504132713422   0.591917523943  F F F
  0.500031493457   0.750788816310   0.589441600850  F F F
  0.749928328190   0.000139003880   0.589297583258  F F F
  0.754028437231   0.249709421755   0.588618764213  F F F
  0.754023388289   0.500284387145   0.588618656114  F F F
  0.749938139082   0.749857868910   0.589299275351  F F F
  0.444498939338   0.374880016604   0.639435897211  T T T
  0.462190789735   0.374755047182   0.679694840904  T T T
  0.304939692942   0.374955700489   0.625198856994  T T T
