Pd N O H
1.0
 10.982000000000   0.000000000000   0.000000000000
  0.000000000000  10.982000000000   0.000000000000
  0.000000000000   0.000000000000  30.000000000000
Pd N O H
 64   1   2   3
Selective dynamics
Direct
  0.124999547344   0.124999547344   0.402932268120  F F F
  0.124999547344   0.374998642032   0.402932268120  F F F
  0.124999547344   0.624997736720   0.402932268120  F F F
  0.124999547344   0.874996831408   0.402932268120  F F F
  0.374998642032   0.124999547344   0.402932268120  F F F
  0.374998642032   0.374998642032   0.402932268120  F F F
  0.374998642032   0.624997736720   0.402932268120  F F F
  0.374998642032   0.874996831408   0.402932268120  F F F
  0.624997736720   0.124999547344   0.402932268120  F F F
  0.624997736720   0.374998642032   0.402932268120  F F F
  0.624997736720   0.624997736720   0.402932268120  F F F
  0.624997736720   0.874996831408   0.402932268120  F F F
  0.874996831408   0.124999547344   0.402932268120  F F F
  0.874996831408   0.374998642032   0.402932268120  F F F
  0.874996831408   0.624997736720   0.402932268120  F F F
  0.874996831408   0.874996831408   0.402932268120  F F F
  0.999812669139   1.000067541603   0.468038609885  T T T
  0.999670302425   0.249622385007   0.468084067164  T T T
  0.999779616902   0.500430571012   0.468078064033  T T T
  0.999886174925   0.750133820850   0.468004537534  T T T
  0.249454844475   1.000074162485   0.468127741742  T T T
  0.249467549680   0.249695402823   0.467983785176  T T T
  0.249484641344   0.500298685204   0.467991725713  T T T
  0.249516998799   0.749989997166   0.468093543193  T T T
  0.500015704803   1.000099804330   0.468033385783  T T T
  0.499971295994   0.249691393494   0.467982133480  T T T
  0.500073397155   0.500311064582   0.467989374620  T T T
  0.500076064011   0.749972419922   0.468003813493  T T T
  0.749898191427   1.000167219174   0.468147718536  T T T
  0.749795055372   0.249811817082   0.468109425618  T T T
  0.749820060013   0.500263879210   0.468114961102  T T T
  0.749922988269   0.750003992032   0.468114794396  T T T
  0.125720322895   0.126377904843   0.533701449705  T T T
  0.123705963047   0.375032791949   0.532902528607  T T T
  0.125893405489   0.623760496014   0.533651595247  T T T
  0.124707293317   0.875156372308   0.532969755616  T T T
  0.374606314913   0.124676918318   0.533054298081  T T T
  0.373844518740   0.374960375084   0.531646735589  T T T
  0.374733360362   0.625397111097   0.533009835205  T T T
  0.374627596094   0.875079321633   0.532862250128  T T T
  0.623453377492   0.125871595457   0.533657474946  T T T
  0.624905772985   0.375021578632   0.532645010174  T T T
  0.623585355202   0.624360965043   0.533573179335  T T T
  0.624768742513   0.875164819195   0.532959459267  T T T
  0.874163323418   0.125481140497   0.533258847475  T T T
  0.874596585161   0.375040518319   0.533157343970  T T T
  0.874448447894   0.624888261931   0.533159106471  T T T
  0.874705395964   0.875195022327   0.532944337036  T T T
  0.999445181434   1.000021715383   0.598167504594  T T T
  0.999074173340   0.249978615692   0.598426921407  T T T
  0.999302584592   0.500361048893   0.598385711846  T T T
  0.999593014771   0.750294782121   0.598119884661  T T T
  0.249663290133   0.999682928018   0.598294131331  T T T
  0.249385190997   0.250332932617   0.600294739080  T T T
  0.249698043981   0.499731996709   0.600277983048  T T T
  0.249820149785   0.750376881008   0.598206798025  T T T
  0.499340700395   0.999516783353   0.598370380598  T T T
  0.497305859258   0.250729244980   0.600379730030  T T T
  0.497496602668   0.499342246177   0.600191215535  T T T
  0.499489638383   0.750592057326   0.598353697882  T T T
  0.749623199063   0.999588637897   0.598215849754  T T T
  0.749168774840   0.249092087263   0.599595929337  T T T
  0.749672303504   0.501522426137   0.599437492158  T T T
  0.749825404950   0.750880833572   0.598130044318  T T T
  0.363135004760   0.374761668985   0.634878069387  T T T
  0.361917549953   0.374761331648   0.676020312752  T T T
  0.625814650351   0.367453377012   0.696203713781  T T T
  0.653821396830   0.336722015276   0.724836528462  T T T
  0.536921044191   0.369575132510   0.698590292372  T T T
  0.639219058171   0.376600535522   0.606198834352  T T T
