N O Pd                                  
   1.00000000000000     
    10.9819999999999993    0.0000000000000000    0.0000000000000000
     0.0000000000000000   10.9819999999999993    0.0000000000000000
     0.0000000000000000    0.0000000000000000   30.0000000000000000
   N    O    Pd
     9     8    64
Selective dynamics
Direct
  0.4833913021015850  0.3803798817709969  0.6491085768317193   T   T   T
  0.4108385238315421  0.9148064806587894  0.6458949878408047   T   T   T
  0.7682275543199093  0.3699193187143389  0.6489787957710126   T   T   T
  0.8396168132814575  0.8352320854733010  0.6457478521583534   T   T   T
  0.5855994435256833  0.6606614079083619  0.6458001323182082   T   T   T
  0.6648023458122224  0.0896012430798816  0.6458510041712776   T   T   T
  0.1199522616842986  0.7321270003802161  0.6489502517005168   T   T   T
  0.1299783137105290  0.0166025934234290  0.6490824092049471   T   T   T
  0.1250590828776462  0.3748220388426616  0.6201663092293997   T   T   T
  0.4952497143304326  0.3703894010672669  0.6884966998564472   T   T   T
  0.4135993204080587  0.9141203975910480  0.6861125238528942   T   T   T
  0.7575865050579350  0.3800247796548149  0.6884086604089168   T   T   T
  0.8371239475927220  0.8358203866078003  0.6859656407648459   T   T   T
  0.5865660387857521  0.6631592177487744  0.6860189357898063   T   T   T
  0.6641921215401311  0.0869884137931995  0.6860685026206365   T   T   T
  0.1299354802808430  0.7431033279803079  0.6883710813757694   T   T   T
  0.1196382369767559  0.0050617909253624  0.6884703347552882   T   T   T
  0.1249995473439967  0.1249995473439967  0.4029322681199972   F   F   F
  0.1249995473439967  0.3749986420319971  0.4029322681199972   F   F   F
  0.1249995473439967  0.6249977367199975  0.4029322681199972   F   F   F
  0.1249995473439967  0.8749968314079979  0.4029322681199972   F   F   F
  0.3749986420319971  0.1249995473439967  0.4029322681199972   F   F   F
  0.3749986420319971  0.3749986420319971  0.4029322681199972   F   F   F
  0.3749986420319971  0.6249977367199975  0.4029322681199972   F   F   F
  0.3749986420319971  0.8749968314079979  0.4029322681199972   F   F   F
  0.6249977367199975  0.1249995473439967  0.4029322681199972   F   F   F
  0.6249977367199975  0.3749986420319971  0.4029322681199972   F   F   F
  0.6249977367199975  0.6249977367199975  0.4029322681199972   F   F   F
  0.6249977367199975  0.8749968314079979  0.4029322681199972   F   F   F
  0.8749968314079979  0.1249995473439967  0.4029322681199972   F   F   F
  0.8749968314079979  0.3749986420319971  0.4029322681199972   F   F   F
  0.8749968314079979  0.6249977367199975  0.4029322681199972   F   F   F
  0.8749968314079979  0.8749968314079979  0.4029322681199972   F   F   F
  0.0002596620267618  0.9988296734779052  0.4682453749023233   T   T   T
  0.9993972652705824  0.2476400690179466  0.4677856496386691   T   T   T
  0.9977931729490158  0.5005554321016039  0.4677740645871615   T   T   T
  0.9983376410507132  0.7501358924639654  0.4679011391237895   T   T   T
  0.2517100795712809  0.9997344268019814  0.4679166912994877   T   T   T
  0.2523433883948151  0.2492431303401164  0.4677786266040537   T   T   T
  0.2507084459290017  0.5022050192861564  0.4677785260750958   T   T   T
  0.2497287137754753  0.7510604591246659  0.4682545379787901   T   T   T
  0.5008351985719517  0.0008351359259670  0.4688234168294771   T   T   T
  0.5011270465345078  0.2502040347352280  0.4682467861100792   T   T   T
  0.5001889831104154  0.5016762655078503  0.4678873877827262   T   T   T
  0.4991196443013784  0.7508815675947846  0.4688045475270951   T   T   T
  0.7508188314283452  0.9991381791084456  0.4688080905552807   T   T   T
  0.7498017669846326  0.2482622857785370  0.4679009332841424   T   T   T
  0.7489046229785906  0.4997326071787515  0.4682101232173304   T   T   T
  0.7491014696096480  0.7491832469822618  0.4687797672003637   T   T   T
  0.1296903228979090  0.1217050731396047  0.5323789659598910   T   T   T
  0.1251617754081483  0.3748272500778501  0.5293823867168587   T   T   T
  0.1204713797081098  0.6280335125696093  0.5323518360427694   T   T   T
  0.1249445872677443  0.8748725000365156  0.5332373885425085   T   T   T
  0.3784817205709921  0.1267298593428014  0.5353049953505670   T   T   T
  0.3782130730517448  0.3795069100984795  0.5323811843268550   T   T   T
  0.3733934974610828  0.6283415039029104  0.5352553448911797   T   T   T
  0.3743613036371340  0.8780706219446704  0.5349835836952687   T   T   T
  0.6281592756207925  0.1256667099902448  0.5349696739839862   T   T   T
  0.6249907976104246  0.3750307927715060  0.5331871493860787   T   T   T
  0.6218856006135407  0.6243805135438257  0.5348923509505017   T   T   T
  0.6248974992144426  0.8750303106774476  0.5343959215248539   T   T   T
  0.8767528856722910  0.1214579504672246  0.5352323625281047   T   T   T
  0.8718272925163745  0.3703461528675944  0.5323237636450856   T   T   T
  0.8716009726601368  0.6232059231365707  0.5351732735395521   T   T   T
  0.8755427648964803  0.8718595499366687  0.5349524535287455   T   T   T
  0.0104078354121040  0.0072738840223022  0.6012328193579263   T   T   T
  0.0004173881981613  0.2541292514593588  0.5988534657074381   T   T   T
  0.0043691465542268  0.4995831565066923  0.5988590260903661   T   T   T
  0.9835762165557951  0.7548496078135466  0.6056184007168333   T   T   T
  0.2664814265634370  0.9946772380875544  0.6058038834256054   T   T   T
  0.2458567147804956  0.2500484704105893  0.5990292826482511   T   T   T
  0.2498675277022178  0.4954938158836144  0.5989685246855141   T   T   T
  0.2396060094520985  0.7423210077660770  0.6012194386507134   T   T   T
  0.5178870952185657  0.0164822611148352  0.6046651527457432   T   T   T
  0.4927301941256306  0.2606723673064006  0.6012999438478368   T   T   T
  0.5052607361963388  0.5166480518669230  0.6057144104912372   T   T   T
  0.4837465029099628  0.7680570624580432  0.6046725636186822   T   T   T
  0.7662491324143916  0.9820969661666952  0.6046150020274476   T   T   T
  0.7450959857864602  0.2335587125365544  0.6056788570260273   T   T   T
  0.7575405579919695  0.4895315392668123  0.6011807411229149   T   T   T
  0.7321726519585836  0.7337482398195332  0.6045612334703278   T   T   T
 
  0.00000000E+00  0.00000000E+00  0.00000000E+00
  0.00000000E+00  0.00000000E+00  0.00000000E+00
  0.00000000E+00  0.00000000E+00  0.00000000E+00
  0.00000000E+00  0.00000000E+00  0.00000000E+00
  0.00000000E+00  0.00000000E+00  0.00000000E+00
  0.00000000E+00  0.00000000E+00  0.00000000E+00
  0.00000000E+00  0.00000000E+00  0.00000000E+00
  0.00000000E+00  0.00000000E+00  0.00000000E+00
  0.00000000E+00  0.00000000E+00  0.00000000E+00
  0.00000000E+00  0.00000000E+00  0.00000000E+00
  0.00000000E+00  0.00000000E+00  0.00000000E+00
  0.00000000E+00  0.00000000E+00  0.00000000E+00
  0.00000000E+00  0.00000000E+00  0.00000000E+00
  0.00000000E+00  0.00000000E+00  0.00000000E+00
  0.00000000E+00  0.00000000E+00  0.00000000E+00
  0.00000000E+00  0.00000000E+00  0.00000000E+00
  0.00000000E+00  0.00000000E+00  0.00000000E+00
  0.00000000E+00  0.00000000E+00  0.00000000E+00
  0.00000000E+00  0.00000000E+00  0.00000000E+00
  0.00000000E+00  0.00000000E+00  0.00000000E+00
  0.00000000E+00  0.00000000E+00  0.00000000E+00
  0.00000000E+00  0.00000000E+00  0.00000000E+00
  0.00000000E+00  0.00000000E+00  0.00000000E+00
  0.00000000E+00  0.00000000E+00  0.00000000E+00
  0.00000000E+00  0.00000000E+00  0.00000000E+00
  0.00000000E+00  0.00000000E+00  0.00000000E+00
  0.00000000E+00  0.00000000E+00  0.00000000E+00
  0.00000000E+00  0.00000000E+00  0.00000000E+00
  0.00000000E+00  0.00000000E+00  0.00000000E+00
  0.00000000E+00  0.00000000E+00  0.00000000E+00
  0.00000000E+00  0.00000000E+00  0.00000000E+00
  0.00000000E+00  0.00000000E+00  0.00000000E+00
  0.00000000E+00  0.00000000E+00  0.00000000E+00
  0.00000000E+00  0.00000000E+00  0.00000000E+00
  0.00000000E+00  0.00000000E+00  0.00000000E+00
  0.00000000E+00  0.00000000E+00  0.00000000E+00
  0.00000000E+00  0.00000000E+00  0.00000000E+00
  0.00000000E+00  0.00000000E+00  0.00000000E+00
  0.00000000E+00  0.00000000E+00  0.00000000E+00
  0.00000000E+00  0.00000000E+00  0.00000000E+00
  0.00000000E+00  0.00000000E+00  0.00000000E+00
  0.00000000E+00  0.00000000E+00  0.00000000E+00
  0.00000000E+00  0.00000000E+00  0.00000000E+00
  0.00000000E+00  0.00000000E+00  0.00000000E+00
  0.00000000E+00  0.00000000E+00  0.00000000E+00
  0.00000000E+00  0.00000000E+00  0.00000000E+00
  0.00000000E+00  0.00000000E+00  0.00000000E+00
  0.00000000E+00  0.00000000E+00  0.00000000E+00
  0.00000000E+00  0.00000000E+00  0.00000000E+00
  0.00000000E+00  0.00000000E+00  0.00000000E+00
  0.00000000E+00  0.00000000E+00  0.00000000E+00
  0.00000000E+00  0.00000000E+00  0.00000000E+00
  0.00000000E+00  0.00000000E+00  0.00000000E+00
  0.00000000E+00  0.00000000E+00  0.00000000E+00
  0.00000000E+00  0.00000000E+00  0.00000000E+00
  0.00000000E+00  0.00000000E+00  0.00000000E+00
  0.00000000E+00  0.00000000E+00  0.00000000E+00
  0.00000000E+00  0.00000000E+00  0.00000000E+00
  0.00000000E+00  0.00000000E+00  0.00000000E+00
  0.00000000E+00  0.00000000E+00  0.00000000E+00
  0.00000000E+00  0.00000000E+00  0.00000000E+00
  0.00000000E+00  0.00000000E+00  0.00000000E+00
  0.00000000E+00  0.00000000E+00  0.00000000E+00
  0.00000000E+00  0.00000000E+00  0.00000000E+00
  0.00000000E+00  0.00000000E+00  0.00000000E+00
  0.00000000E+00  0.00000000E+00  0.00000000E+00
  0.00000000E+00  0.00000000E+00  0.00000000E+00
  0.00000000E+00  0.00000000E+00  0.00000000E+00
  0.00000000E+00  0.00000000E+00  0.00000000E+00
  0.00000000E+00  0.00000000E+00  0.00000000E+00
  0.00000000E+00  0.00000000E+00  0.00000000E+00
  0.00000000E+00  0.00000000E+00  0.00000000E+00
  0.00000000E+00  0.00000000E+00  0.00000000E+00
  0.00000000E+00  0.00000000E+00  0.00000000E+00
  0.00000000E+00  0.00000000E+00  0.00000000E+00
  0.00000000E+00  0.00000000E+00  0.00000000E+00
  0.00000000E+00  0.00000000E+00  0.00000000E+00
  0.00000000E+00  0.00000000E+00  0.00000000E+00
  0.00000000E+00  0.00000000E+00  0.00000000E+00
  0.00000000E+00  0.00000000E+00  0.00000000E+00
  0.00000000E+00  0.00000000E+00  0.00000000E+00
