Cu N O H                                
   1.00000000000000     
    10.0912000000000006    0.0000000000000000    0.0000000000000000
     0.0000000000000000   10.0912000000000006    0.0000000000000000
     0.0000000000000000    0.0000000000000000   30.0000000000000000
   Cu   N    O    H 
    64     1     1     1
Selective dynamics
Direct
  0.1249998119670011  0.1249998119670011  0.4104769008810010   F   F   F
  0.1249998119670011  0.3749994359000013  0.4104769008810010   F   F   F
  0.1249998119670011  0.6249990598330015  0.4104769008810010   F   F   F
  0.1249998119670011  0.8749986837660018  0.4104769008810010   F   F   F
  0.3749994359000013  0.1249998119670011  0.4104769008810010   F   F   F
  0.3749994359000013  0.3749994359000013  0.4104769008810010   F   F   F
  0.3749994359000013  0.6249990598330015  0.4104769008810010   F   F   F
  0.3749994359000013  0.8749986837660018  0.4104769008810010   F   F   F
  0.6249990598330015  0.1249998119670011  0.4104769008810010   F   F   F
  0.6249990598330015  0.3749994359000013  0.4104769008810010   F   F   F
  0.6249990598330015  0.6249990598330015  0.4104769008810010   F   F   F
  0.6249990598330015  0.8749986837660018  0.4104769008810010   F   F   F
  0.8749986837660018  0.1249998119670011  0.4104769008810010   F   F   F
  0.8749986837660018  0.3749994359000013  0.4104769008810010   F   F   F
  0.8749986837660018  0.6249990598330015  0.4104769008810010   F   F   F
  0.8749986837660018  0.8749986837660018  0.4104769008810010   F   F   F
  0.9992452802368286  0.0002289978136172  0.4697046040916822   T   T   T
  0.9989705746042913  0.2500209295710260  0.4697557105936103   T   T   T
  0.9989860590444171  0.4997186927752827  0.4697616166074980   T   T   T
  0.9992468016390904  0.7495057173840448  0.4697114905311811   T   T   T
  0.2501642896933296  0.9999620857917449  0.4696833755573120   T   T   T
  0.2496634814176355  0.2499357035125878  0.4697045664068314   T   T   T
  0.2496625713201929  0.4998672236090659  0.4697109246240983   T   T   T
  0.2501502936926597  0.7498650600756150  0.4696790083097160   T   T   T
  0.5000349027963170  0.0003825745370375  0.4697699148409312   T   T   T
  0.4994252402202113  0.2498809330152127  0.4698208276502478   T   T   T
  0.4994407137918875  0.4999818713713930  0.4698183895605635   T   T   T
  0.5000432806013124  0.7494998179983622  0.4697653422501340   T   T   T
  0.7493667927404103  0.0004500520601973  0.4697583689608337   T   T   T
  0.7494236505390373  0.2499165169601147  0.4697629911448208   T   T   T
  0.7494448974425729  0.4998621862031268  0.4697642114694406   T   T   T
  0.7494030881530234  0.7493507107858933  0.4697520966161629   T   T   T
  0.1241447477766691  0.1239055535792244  0.5297889213657495   T   T   T
  0.1235394457158585  0.3748424893899707  0.5298759201083579   T   T   T
  0.1241457914589361  0.6257830272186856  0.5297848948115886   T   T   T
  0.1247923650547989  0.8748539771147401  0.5304773836464789   T   T   T
  0.3756308332578475  0.1261381626298747  0.5308275677811316   T   T   T
  0.3748581693208021  0.3748498875301940  0.5303845638572111   T   T   T
  0.3756442150947116  0.6236611910496903  0.5307982588120469   T   T   T
  0.3744085145631685  0.8748807731462436  0.5299588505363270   T   T   T
  0.6239172564330433  0.1271654894708692  0.5310982836614218   T   T   T
  0.6238316530997504  0.3747924029798012  0.5300756721259130   T   T   T
  0.6239901628207664  0.6224642650675536  0.5310702860572486   T   T   T
  0.6246099700822976  0.8748149181657823  0.5298816547556382   T   T   T
  0.8723385590880781  0.1261172747409283  0.5309558074715833   T   T   T
  0.8720231553628316  0.3747347641852832  0.5306604600487316   T   T   T
  0.8723595500619986  0.6233661581040401  0.5309615397454062   T   T   T
  0.8752032358070403  0.8747527750627441  0.5297985363916530   T   T   T
  0.9994006886947350  0.9997019996316462  0.5894277442636032   T   T   T
  0.0008966930496300  0.2492524677244984  0.5891177500751399   T   T   T
  0.0009686310295222  0.5002402124609412  0.5891151581823101   T   T   T
  0.9993769260197291  0.7498435135419774  0.5894218642012563   T   T   T
  0.2500593022053965  0.0001180107070497  0.5894977070632617   T   T   T
  0.2449209873385421  0.2495615824421330  0.5891442801169245   T   T   T
  0.2450529714598624  0.5003988438797271  0.5891187105720690   T   T   T
  0.2500267102787185  0.7498674127597014  0.5894895714290322   T   T   T
  0.4996478181165699  0.9977340713403704  0.5893863385115191   T   T   T
  0.4919624804842828  0.2436075235522120  0.5926181048425162   T   T   T
  0.4922197193735464  0.5057961456612812  0.5924652909511018   T   T   T
  0.4996391918728153  0.7517028337458583  0.5893794825465254   T   T   T
  0.7497541086137899  0.9975006901307010  0.5892456217113706   T   T   T
  0.7530358450887940  0.2439454077880263  0.5922883827547349   T   T   T
  0.7530829988100788  0.5053387126480301  0.5922849884191214   T   T   T
  0.7497312396694494  0.7518235661288456  0.5892407501488904   T   T   T
  0.5524510484648202  0.3748418385728566  0.6360475545399911   T   T   T
  0.6963707947070825  0.3746089218516733  0.6385817809057638   T   T   T
  0.5204683751320550  0.3756335649489835  0.6685566280759350   T   T   T
 
  0.00000000E+00  0.00000000E+00  0.00000000E+00
  0.00000000E+00  0.00000000E+00  0.00000000E+00
  0.00000000E+00  0.00000000E+00  0.00000000E+00
  0.00000000E+00  0.00000000E+00  0.00000000E+00
  0.00000000E+00  0.00000000E+00  0.00000000E+00
  0.00000000E+00  0.00000000E+00  0.00000000E+00
  0.00000000E+00  0.00000000E+00  0.00000000E+00
  0.00000000E+00  0.00000000E+00  0.00000000E+00
  0.00000000E+00  0.00000000E+00  0.00000000E+00
  0.00000000E+00  0.00000000E+00  0.00000000E+00
  0.00000000E+00  0.00000000E+00  0.00000000E+00
  0.00000000E+00  0.00000000E+00  0.00000000E+00
  0.00000000E+00  0.00000000E+00  0.00000000E+00
  0.00000000E+00  0.00000000E+00  0.00000000E+00
  0.00000000E+00  0.00000000E+00  0.00000000E+00
  0.00000000E+00  0.00000000E+00  0.00000000E+00
  0.00000000E+00  0.00000000E+00  0.00000000E+00
  0.00000000E+00  0.00000000E+00  0.00000000E+00
  0.00000000E+00  0.00000000E+00  0.00000000E+00
  0.00000000E+00  0.00000000E+00  0.00000000E+00
  0.00000000E+00  0.00000000E+00  0.00000000E+00
  0.00000000E+00  0.00000000E+00  0.00000000E+00
  0.00000000E+00  0.00000000E+00  0.00000000E+00
  0.00000000E+00  0.00000000E+00  0.00000000E+00
  0.00000000E+00  0.00000000E+00  0.00000000E+00
  0.00000000E+00  0.00000000E+00  0.00000000E+00
  0.00000000E+00  0.00000000E+00  0.00000000E+00
  0.00000000E+00  0.00000000E+00  0.00000000E+00
  0.00000000E+00  0.00000000E+00  0.00000000E+00
  0.00000000E+00  0.00000000E+00  0.00000000E+00
  0.00000000E+00  0.00000000E+00  0.00000000E+00
  0.00000000E+00  0.00000000E+00  0.00000000E+00
  0.00000000E+00  0.00000000E+00  0.00000000E+00
  0.00000000E+00  0.00000000E+00  0.00000000E+00
  0.00000000E+00  0.00000000E+00  0.00000000E+00
  0.00000000E+00  0.00000000E+00  0.00000000E+00
  0.00000000E+00  0.00000000E+00  0.00000000E+00
  0.00000000E+00  0.00000000E+00  0.00000000E+00
  0.00000000E+00  0.00000000E+00  0.00000000E+00
  0.00000000E+00  0.00000000E+00  0.00000000E+00
  0.00000000E+00  0.00000000E+00  0.00000000E+00
  0.00000000E+00  0.00000000E+00  0.00000000E+00
  0.00000000E+00  0.00000000E+00  0.00000000E+00
  0.00000000E+00  0.00000000E+00  0.00000000E+00
  0.00000000E+00  0.00000000E+00  0.00000000E+00
  0.00000000E+00  0.00000000E+00  0.00000000E+00
  0.00000000E+00  0.00000000E+00  0.00000000E+00
  0.00000000E+00  0.00000000E+00  0.00000000E+00
  0.00000000E+00  0.00000000E+00  0.00000000E+00
  0.00000000E+00  0.00000000E+00  0.00000000E+00
  0.00000000E+00  0.00000000E+00  0.00000000E+00
  0.00000000E+00  0.00000000E+00  0.00000000E+00
  0.00000000E+00  0.00000000E+00  0.00000000E+00
  0.00000000E+00  0.00000000E+00  0.00000000E+00
  0.00000000E+00  0.00000000E+00  0.00000000E+00
  0.00000000E+00  0.00000000E+00  0.00000000E+00
  0.00000000E+00  0.00000000E+00  0.00000000E+00
  0.00000000E+00  0.00000000E+00  0.00000000E+00
  0.00000000E+00  0.00000000E+00  0.00000000E+00
  0.00000000E+00  0.00000000E+00  0.00000000E+00
  0.00000000E+00  0.00000000E+00  0.00000000E+00
  0.00000000E+00  0.00000000E+00  0.00000000E+00
  0.00000000E+00  0.00000000E+00  0.00000000E+00
  0.00000000E+00  0.00000000E+00  0.00000000E+00
  0.00000000E+00  0.00000000E+00  0.00000000E+00
  0.00000000E+00  0.00000000E+00  0.00000000E+00
  0.00000000E+00  0.00000000E+00  0.00000000E+00
