N O Pd                                  
   1.00000000000000     
    10.9819999999999993    0.0000000000000000    0.0000000000000000
     0.0000000000000000   10.9819999999999993    0.0000000000000000
     0.0000000000000000    0.0000000000000000   30.0000000000000000
   N    O    Pd
    11    10    64
Selective dynamics
Direct
  0.4009139054845576  0.3470292571913305  0.6269117409360163   T   T   T
  0.3760321516412546  0.0140724370207650  0.6506652019295203   T   T   T
  0.2298820372292738  0.5110002348649090  0.6697923395324707   T   T   T
  0.7387025792321182  0.3693559003884772  0.6505305692569721   T   T   T
  0.6548205608152671  0.0915678558945316  0.6436534252179626   T   T   T
  0.6532957518646114  0.6480003209607901  0.6443595883053561   T   T   T
  0.9956322164870670  0.3805816478016908  0.6486156855823566   T   T   T
  0.0920653102508666  0.0966202469664239  0.6441578784796747   T   T   T
  0.1143766354279379  0.7534988109960636  0.6514338485281499   T   T   T
  0.8606881568300579  0.8719366994947251  0.6411814390632244   T   T   T
  0.3910564498581337  0.7624514851505069  0.6522844698569799   T   T   T
  0.3782793889218397  0.0471740781514569  0.6885374044896295   T   T   T
  0.3127332690776754  0.5095134869007936  0.6946444238168965   T   T   T
  0.7066808096027799  0.3659364182105236  0.6884986050944661   T   T   T
  0.6585636910326542  0.0871703324747770  0.6837748265309500   T   T   T
  0.6579050165045501  0.6533095131671587  0.6845136047473162   T   T   T
  0.0025743212613420  0.3883406457587384  0.6882424227263826   T   T   T
  0.0835748765750211  0.0875231065144604  0.6841854876361424   T   T   T
  0.1054738527282808  0.7705083271781987  0.6905676165206742   T   T   T
  0.8578517943525199  0.8747662046610927  0.6814656227991733   T   T   T
  0.3960877243480567  0.7463395932589520  0.6916160789780221   T   T   T
  0.1250057377080012  0.1249595668340007  0.4024719085290016   F   F   F
  0.1249652005890027  0.3749012424789981  0.4024263751250032   F   F   F
  0.1250075116739993  0.6250135104739982  0.4024179364609992   F   F   F
  0.1250432032760003  0.8750535049230024  0.4024622844819987   F   F   F
  0.3749634199860026  0.1249555587380016  0.4024607606240025   F   F   F
  0.3749636581449991  0.3748658964049980  0.4024058701429993   F   F   F
  0.3749458876419993  0.6249820858050015  0.4023817581139966   F   F   F
  0.3749442454340013  0.8750569006090032  0.4024400753770010   F   F   F
  0.6250115772419989  0.1249761932649989  0.4024407195599977   F   F   F
  0.6250482632099974  0.3748458556599985  0.4023951823049998   F   F   F
  0.6250522191060028  0.6249402173380005  0.4023401702419989   F   F   F
  0.6250165871449980  0.8750700656670034  0.4023853353940012   F   F   F
  0.8750551802920015  0.1249813949830028  0.4024506609169975   F   F   F
  0.8750616183500028  0.3748831050650026  0.4024186434520018   F   F   F
  0.8751161024979979  0.6249717403140025  0.4023795388839986   F   F   F
  0.8751147209519985  0.8750660769809997  0.4024084968880004   F   F   F
  0.0016719558488987  0.0005221663710699  0.4679183173959416   T   T   T
  0.9995987922213416  0.2514893411065486  0.4680892719027412   T   T   T
  0.9979307477519228  0.5003550203600895  0.4685749415620606   T   T   T
  0.0011275682356526  0.7493497815476857  0.4679877139652504   T   T   T
  0.2505397358626382  0.9990713348296225  0.4680428606258502   T   T   T
  0.2477553457057482  0.2505956619149927  0.4670856090971327   T   T   T
  0.2461181342544165  0.5046664818764626  0.4673418827359157   T   T   T
  0.2496813100159727  0.7518410629374515  0.4689048702818042   T   T   T
  0.5002367948559296  0.9969689541308426  0.4678924363733401   T   T   T
  0.5012530184296295  0.2479469535126597  0.4666501905231186   T   T   T
  0.4993335667325809  0.5021174234743810  0.4670214389382394   T   T   T
  0.4975647985729950  0.7498870396039266  0.4684188421799078   T   T   T
  0.7514386228655070  0.9977180303378006  0.4674275936512942   T   T   T
  0.7517232684693624  0.2489413614433076  0.4676067718454036   T   T   T
  0.7503243407433828  0.4993611937046296  0.4678656264604655   T   T   T
  0.7490216433671080  0.7479703208265605  0.4677591679070474   T   T   T
  0.1264288647072220  0.1293108585954386  0.5340735073945950   T   T   T
  0.1226326984420325  0.3804307219747969  0.5336995142822047   T   T   T
  0.1213132300736959  0.6287156213252203  0.5362845879816618   T   T   T
  0.1293187338442081  0.8772667415868369  0.5343402806296282   T   T   T
  0.3752395361947407  0.1222020595766722  0.5310616749951862   T   T   T
  0.3721450194000724  0.3782424254532941  0.5276598094038576   T   T   T
  0.3691928200443897  0.6282203162093936  0.5347390154326206   T   T   T
  0.3759891662779040  0.8757795859874804  0.5379065386520381   T   T   T
  0.6285724951478429  0.1200036247005016  0.5325459986864871   T   T   T
  0.6262632167394671  0.3740071147814206  0.5309861613872897   T   T   T
  0.6213242598847799  0.6222566254136055  0.5341782830810047   T   T   T
  0.6224735800309205  0.8715668444635725  0.5336565157901063   T   T   T
  0.8764811333707669  0.1266015317895253  0.5333260039734142   T   T   T
  0.8714359507301097  0.3719218892246658  0.5360067050909763   T   T   T
  0.8729755376541348  0.6225945177375394  0.5342036661329033   T   T   T
  0.8765894403910721  0.8726715116408172  0.5325380480438753   T   T   T
  0.9978644390945988  0.9989475552376135  0.5992440028952259   T   T   T
  0.0129267247864675  0.2445943540514506  0.6049880200816489   T   T   T
  0.9853611964258064  0.5025251654493914  0.6016495415520069   T   T   T
  0.9958643647195515  0.7525397994344942  0.6029250109561275   T   T   T
  0.2457034535819034  0.0219548032350758  0.6047363146594904   T   T   T
  0.2624772653541854  0.2702951546671812  0.5980080288827949   T   T   T
  0.2351963178321839  0.5125072395188042  0.6057512201693172   T   T   T
  0.2519355561380934  0.7633275888900997  0.6080435705329350   T   T   T
  0.5071030343065388  0.0031708785214946  0.6043329660342849   T   T   T
  0.5051423567856688  0.2444361370851169  0.5935927284763380   T   T   T
  0.4780491344773665  0.4866498655824643  0.5985207376022217   T   T   T
  0.5093851700655776  0.7353316728637296  0.6043082297941211   T   T   T
  0.7550290412173410  0.9926720230396597  0.5998552080344837   T   T   T
  0.7470653067294180  0.2402094657592002  0.6040413729685028   T   T   T
  0.7291559788579889  0.5007016296338307  0.6047853481103829   T   T   T
  0.7533029043089670  0.7486218319628577  0.6007102821850339   T   T   T
 
  0.00000000E+00  0.00000000E+00  0.00000000E+00
  0.00000000E+00  0.00000000E+00  0.00000000E+00
  0.00000000E+00  0.00000000E+00  0.00000000E+00
  0.00000000E+00  0.00000000E+00  0.00000000E+00
  0.00000000E+00  0.00000000E+00  0.00000000E+00
  0.00000000E+00  0.00000000E+00  0.00000000E+00
  0.00000000E+00  0.00000000E+00  0.00000000E+00
  0.00000000E+00  0.00000000E+00  0.00000000E+00
  0.00000000E+00  0.00000000E+00  0.00000000E+00
  0.00000000E+00  0.00000000E+00  0.00000000E+00
  0.00000000E+00  0.00000000E+00  0.00000000E+00
  0.00000000E+00  0.00000000E+00  0.00000000E+00
  0.00000000E+00  0.00000000E+00  0.00000000E+00
  0.00000000E+00  0.00000000E+00  0.00000000E+00
  0.00000000E+00  0.00000000E+00  0.00000000E+00
  0.00000000E+00  0.00000000E+00  0.00000000E+00
  0.00000000E+00  0.00000000E+00  0.00000000E+00
  0.00000000E+00  0.00000000E+00  0.00000000E+00
  0.00000000E+00  0.00000000E+00  0.00000000E+00
  0.00000000E+00  0.00000000E+00  0.00000000E+00
  0.00000000E+00  0.00000000E+00  0.00000000E+00
  0.00000000E+00  0.00000000E+00  0.00000000E+00
  0.00000000E+00  0.00000000E+00  0.00000000E+00
  0.00000000E+00  0.00000000E+00  0.00000000E+00
  0.00000000E+00  0.00000000E+00  0.00000000E+00
  0.00000000E+00  0.00000000E+00  0.00000000E+00
  0.00000000E+00  0.00000000E+00  0.00000000E+00
  0.00000000E+00  0.00000000E+00  0.00000000E+00
  0.00000000E+00  0.00000000E+00  0.00000000E+00
  0.00000000E+00  0.00000000E+00  0.00000000E+00
  0.00000000E+00  0.00000000E+00  0.00000000E+00
  0.00000000E+00  0.00000000E+00  0.00000000E+00
  0.00000000E+00  0.00000000E+00  0.00000000E+00
  0.00000000E+00  0.00000000E+00  0.00000000E+00
  0.00000000E+00  0.00000000E+00  0.00000000E+00
  0.00000000E+00  0.00000000E+00  0.00000000E+00
  0.00000000E+00  0.00000000E+00  0.00000000E+00
  0.00000000E+00  0.00000000E+00  0.00000000E+00
  0.00000000E+00  0.00000000E+00  0.00000000E+00
  0.00000000E+00  0.00000000E+00  0.00000000E+00
  0.00000000E+00  0.00000000E+00  0.00000000E+00
  0.00000000E+00  0.00000000E+00  0.00000000E+00
  0.00000000E+00  0.00000000E+00  0.00000000E+00
  0.00000000E+00  0.00000000E+00  0.00000000E+00
  0.00000000E+00  0.00000000E+00  0.00000000E+00
  0.00000000E+00  0.00000000E+00  0.00000000E+00
  0.00000000E+00  0.00000000E+00  0.00000000E+00
  0.00000000E+00  0.00000000E+00  0.00000000E+00
  0.00000000E+00  0.00000000E+00  0.00000000E+00
  0.00000000E+00  0.00000000E+00  0.00000000E+00
  0.00000000E+00  0.00000000E+00  0.00000000E+00
  0.00000000E+00  0.00000000E+00  0.00000000E+00
  0.00000000E+00  0.00000000E+00  0.00000000E+00
  0.00000000E+00  0.00000000E+00  0.00000000E+00
  0.00000000E+00  0.00000000E+00  0.00000000E+00
  0.00000000E+00  0.00000000E+00  0.00000000E+00
  0.00000000E+00  0.00000000E+00  0.00000000E+00
  0.00000000E+00  0.00000000E+00  0.00000000E+00
  0.00000000E+00  0.00000000E+00  0.00000000E+00
  0.00000000E+00  0.00000000E+00  0.00000000E+00
  0.00000000E+00  0.00000000E+00  0.00000000E+00
  0.00000000E+00  0.00000000E+00  0.00000000E+00
  0.00000000E+00  0.00000000E+00  0.00000000E+00
  0.00000000E+00  0.00000000E+00  0.00000000E+00
  0.00000000E+00  0.00000000E+00  0.00000000E+00
  0.00000000E+00  0.00000000E+00  0.00000000E+00
  0.00000000E+00  0.00000000E+00  0.00000000E+00
  0.00000000E+00  0.00000000E+00  0.00000000E+00
  0.00000000E+00  0.00000000E+00  0.00000000E+00
  0.00000000E+00  0.00000000E+00  0.00000000E+00
  0.00000000E+00  0.00000000E+00  0.00000000E+00
  0.00000000E+00  0.00000000E+00  0.00000000E+00
  0.00000000E+00  0.00000000E+00  0.00000000E+00
  0.00000000E+00  0.00000000E+00  0.00000000E+00
  0.00000000E+00  0.00000000E+00  0.00000000E+00
  0.00000000E+00  0.00000000E+00  0.00000000E+00
  0.00000000E+00  0.00000000E+00  0.00000000E+00
  0.00000000E+00  0.00000000E+00  0.00000000E+00
  0.00000000E+00  0.00000000E+00  0.00000000E+00
  0.00000000E+00  0.00000000E+00  0.00000000E+00
  0.00000000E+00  0.00000000E+00  0.00000000E+00
  0.00000000E+00  0.00000000E+00  0.00000000E+00
  0.00000000E+00  0.00000000E+00  0.00000000E+00
  0.00000000E+00  0.00000000E+00  0.00000000E+00
  0.00000000E+00  0.00000000E+00  0.00000000E+00
