Pd N O H                                
   1.00000000000000     
    10.9819999999999993    0.0000000000000000    0.0000000000000000
     0.0000000000000000   10.9819999999999993    0.0000000000000000
     0.0000000000000000    0.0000000000000000   30.0000000000000000
   Pd   N    O    H 
    64     1     1     1
Selective dynamics
Direct
  0.1249995473439967  0.1249995473439967  0.4029322681199972   F   F   F
  0.1249995473439967  0.3749986420319971  0.4029322681199972   F   F   F
  0.1249995473439967  0.6249977367199975  0.4029322681199972   F   F   F
  0.1249995473439967  0.8749968314079979  0.4029322681199972   F   F   F
  0.3749986420319971  0.1249995473439967  0.4029322681199972   F   F   F
  0.3749986420319971  0.3749986420319971  0.4029322681199972   F   F   F
  0.3749986420319971  0.6249977367199975  0.4029322681199972   F   F   F
  0.3749986420319971  0.8749968314079979  0.4029322681199972   F   F   F
  0.6249977367199975  0.1249995473439967  0.4029322681199972   F   F   F
  0.6249977367199975  0.3749986420319971  0.4029322681199972   F   F   F
  0.6249977367199975  0.6249977367199975  0.4029322681199972   F   F   F
  0.6249977367199975  0.8749968314079979  0.4029322681199972   F   F   F
  0.8749968314079979  0.1249995473439967  0.4029322681199972   F   F   F
  0.8749968314079979  0.3749986420319971  0.4029322681199972   F   F   F
  0.8749968314079979  0.6249977367199975  0.4029322681199972   F   F   F
  0.8749968314079979  0.8749968314079979  0.4029322681199972   F   F   F
  0.9999319736451918  0.0000655472601917  0.4679851634656882   T   T   T
  0.0000626468566103  0.2497048954336029  0.4681556527624893   T   T   T
  0.0000931014573280  0.5001203492195050  0.4680322775182061   T   T   T
  0.0002064923631599  0.7501092152547694  0.4681730464134399   T   T   T
  0.2495885947877966  0.9998345328028198  0.4681058786907379   T   T   T
  0.2497391682446336  0.2496986560249548  0.4680334648085684   T   T   T
  0.2496739195978763  0.5000265642363217  0.4679844589427872   T   T   T
  0.2498216484885039  0.7499519831653120  0.4681284776854553   T   T   T
  0.5004074683645123  0.9999123049566291  0.4680894691035924   T   T   T
  0.5002213345017263  0.2497119650199497  0.4680279200396282   T   T   T
  0.5003482003202585  0.5000694967559161  0.4679831077880108   T   T   T
  0.5002466134169903  0.7499836029488982  0.4681161425113186   T   T   T
  0.7501818100468347  0.0000977158289278  0.4679713811868677   T   T   T
  0.7499504268323989  0.2497180760524343  0.4681495142935422   T   T   T
  0.7500015006154672  0.5001012414488223  0.4680223990459482   T   T   T
  0.7499907914500028  0.7501199751721832  0.4681419002074663   T   T   T
  0.1263233299269069  0.1260712458277202  0.5337079219253446   T   T   T
  0.1248155252174332  0.3751359779690046  0.5331042478477124   T   T   T
  0.1258779520939695  0.6235297550766250  0.5336352981543822   T   T   T
  0.1254201247231391  0.8746584131661480  0.5332589909177392   T   T   T
  0.3750066521527994  0.1242963265236436  0.5329718053245626   T   T   T
  0.3750363633560979  0.3744024241047223  0.5317419687867363   T   T   T
  0.3751732946762346  0.6249060913759954  0.5325217035351054   T   T   T
  0.3750875003293433  0.8751417152051063  0.5331240090619608   T   T   T
  0.6236368978501045  0.1261755339423209  0.5336839773746427   T   T   T
  0.6251616646051241  0.3753164457093417  0.5330817595919561   T   T   T
  0.6243518066980229  0.6236413324533436  0.5335490646892252   T   T   T
  0.6247750015433642  0.8747773628542594  0.5331843856109194   T   T   T
  0.8750748626020549  0.1248428569983405  0.5329799449011898   T   T   T
  0.8750350142612824  0.3750368956863813  0.5328965311914962   T   T   T
  0.8751541280651676  0.6249566165937539  0.5329769834368039   T   T   T
  0.8751352802100846  0.8749909332242622  0.5329566108525848   T   T   T
  0.9998369311006557  0.9999272194141998  0.5982081508610803   T   T   T
  0.9996063025170050  0.2500107732522147  0.5983143598254710   T   T   T
  0.9995540657328936  0.4997575446418011  0.5984062643226061   T   T   T
  0.9996787676053815  0.7500136610454294  0.5982083950557819   T   T   T
  0.2498296814505940  0.9998673098971961  0.5984194539954550   T   T   T
  0.2503997128257028  0.2503934468499963  0.6002247804944104   T   T   T
  0.2513091830896664  0.4985438173234465  0.6005441160047467   T   T   T
  0.2493345205541784  0.7493010031764130  0.5991719251171546   T   T   T
  0.5003281612362883  0.0001777965609918  0.5984146382976779   T   T   T
  0.4995236825123556  0.2508365297608260  0.6002476778093470   T   T   T
  0.4990867795868658  0.4989892635805273  0.6005290371681257   T   T   T
  0.5010574914690092  0.7496327391932223  0.5991888471222596   T   T   T
  0.7502055114196378  0.9999421076326436  0.5981283357640708   T   T   T
  0.7502768432123461  0.2500499432547356  0.5982043367686317   T   T   T
  0.7506238399939467  0.4998201061737201  0.5983673100721889   T   T   T
  0.7505968358223923  0.7500721209741731  0.5981061290149338   T   T   T
  0.3744952199845303  0.3672222175070152  0.6355033943620038   T   T   T
  0.3743810129936707  0.3661640184974730  0.6762005348463254   T   T   T
  0.3752925147894751  0.6557499456768507  0.6155461878529210   T   T   T
 
  0.00000000E+00  0.00000000E+00  0.00000000E+00
  0.00000000E+00  0.00000000E+00  0.00000000E+00
  0.00000000E+00  0.00000000E+00  0.00000000E+00
  0.00000000E+00  0.00000000E+00  0.00000000E+00
  0.00000000E+00  0.00000000E+00  0.00000000E+00
  0.00000000E+00  0.00000000E+00  0.00000000E+00
  0.00000000E+00  0.00000000E+00  0.00000000E+00
  0.00000000E+00  0.00000000E+00  0.00000000E+00
  0.00000000E+00  0.00000000E+00  0.00000000E+00
  0.00000000E+00  0.00000000E+00  0.00000000E+00
  0.00000000E+00  0.00000000E+00  0.00000000E+00
  0.00000000E+00  0.00000000E+00  0.00000000E+00
  0.00000000E+00  0.00000000E+00  0.00000000E+00
  0.00000000E+00  0.00000000E+00  0.00000000E+00
  0.00000000E+00  0.00000000E+00  0.00000000E+00
  0.00000000E+00  0.00000000E+00  0.00000000E+00
  0.00000000E+00  0.00000000E+00  0.00000000E+00
  0.00000000E+00  0.00000000E+00  0.00000000E+00
  0.00000000E+00  0.00000000E+00  0.00000000E+00
  0.00000000E+00  0.00000000E+00  0.00000000E+00
  0.00000000E+00  0.00000000E+00  0.00000000E+00
  0.00000000E+00  0.00000000E+00  0.00000000E+00
  0.00000000E+00  0.00000000E+00  0.00000000E+00
  0.00000000E+00  0.00000000E+00  0.00000000E+00
  0.00000000E+00  0.00000000E+00  0.00000000E+00
  0.00000000E+00  0.00000000E+00  0.00000000E+00
  0.00000000E+00  0.00000000E+00  0.00000000E+00
  0.00000000E+00  0.00000000E+00  0.00000000E+00
  0.00000000E+00  0.00000000E+00  0.00000000E+00
  0.00000000E+00  0.00000000E+00  0.00000000E+00
  0.00000000E+00  0.00000000E+00  0.00000000E+00
  0.00000000E+00  0.00000000E+00  0.00000000E+00
  0.00000000E+00  0.00000000E+00  0.00000000E+00
  0.00000000E+00  0.00000000E+00  0.00000000E+00
  0.00000000E+00  0.00000000E+00  0.00000000E+00
  0.00000000E+00  0.00000000E+00  0.00000000E+00
  0.00000000E+00  0.00000000E+00  0.00000000E+00
  0.00000000E+00  0.00000000E+00  0.00000000E+00
  0.00000000E+00  0.00000000E+00  0.00000000E+00
  0.00000000E+00  0.00000000E+00  0.00000000E+00
  0.00000000E+00  0.00000000E+00  0.00000000E+00
  0.00000000E+00  0.00000000E+00  0.00000000E+00
  0.00000000E+00  0.00000000E+00  0.00000000E+00
  0.00000000E+00  0.00000000E+00  0.00000000E+00
  0.00000000E+00  0.00000000E+00  0.00000000E+00
  0.00000000E+00  0.00000000E+00  0.00000000E+00
  0.00000000E+00  0.00000000E+00  0.00000000E+00
  0.00000000E+00  0.00000000E+00  0.00000000E+00
  0.00000000E+00  0.00000000E+00  0.00000000E+00
  0.00000000E+00  0.00000000E+00  0.00000000E+00
  0.00000000E+00  0.00000000E+00  0.00000000E+00
  0.00000000E+00  0.00000000E+00  0.00000000E+00
  0.00000000E+00  0.00000000E+00  0.00000000E+00
  0.00000000E+00  0.00000000E+00  0.00000000E+00
  0.00000000E+00  0.00000000E+00  0.00000000E+00
  0.00000000E+00  0.00000000E+00  0.00000000E+00
  0.00000000E+00  0.00000000E+00  0.00000000E+00
  0.00000000E+00  0.00000000E+00  0.00000000E+00
  0.00000000E+00  0.00000000E+00  0.00000000E+00
  0.00000000E+00  0.00000000E+00  0.00000000E+00
  0.00000000E+00  0.00000000E+00  0.00000000E+00
  0.00000000E+00  0.00000000E+00  0.00000000E+00
  0.00000000E+00  0.00000000E+00  0.00000000E+00
  0.00000000E+00  0.00000000E+00  0.00000000E+00
  0.00000000E+00  0.00000000E+00  0.00000000E+00
  0.00000000E+00  0.00000000E+00  0.00000000E+00
  0.00000000E+00  0.00000000E+00  0.00000000E+00
