Cu N O                                  
   1.00000000000000     
    10.0912000000000006    0.0000000000000000    0.0000000000000000
     0.0000000000000000   10.0912000000000006    0.0000000000000000
     0.0000000000000000    0.0000000000000000   30.0000000000000000
   Cu   N    O 
    64     1     1
Selective dynamics
Direct
  0.1249998119670011  0.1249998119670011  0.4104769008810010   F   F   F
  0.1249998119670011  0.3749994359000013  0.4104769008810010   F   F   F
  0.1249998119670011  0.6249990598330015  0.4104769008810010   F   F   F
  0.1249998119670011  0.8749986837660018  0.4104769008810010   F   F   F
  0.3749994359000013  0.1249998119670011  0.4104769008810010   F   F   F
  0.3749994359000013  0.3749994359000013  0.4104769008810010   F   F   F
  0.3749994359000013  0.6249990598330015  0.4104769008810010   F   F   F
  0.3749994359000013  0.8749986837660018  0.4104769008810010   F   F   F
  0.6249990598330015  0.1249998119670011  0.4104769008810010   F   F   F
  0.6249990598330015  0.3749994359000013  0.4104769008810010   F   F   F
  0.6249990598330015  0.6249990598330015  0.4104769008810010   F   F   F
  0.6249990598330015  0.8749986837660018  0.4104769008810010   F   F   F
  0.8749986837660018  0.1249998119670011  0.4104769008810010   F   F   F
  0.8749986837660018  0.3749994359000013  0.4104769008810010   F   F   F
  0.8749986837660018  0.6249990598330015  0.4104769008810010   F   F   F
  0.8749986837660018  0.8749986837660018  0.4104769008810010   F   F   F
  0.0000619917046764  0.0000841275527110  0.4699274555116793   T   T   T
  0.0001867203853395  0.2500304314853810  0.4699267356149109   T   T   T
  0.0001967225252262  0.4999402441391061  0.4699238574286984   T   T   T
  0.0000785479110758  0.7498965756554381  0.4699285195257493   T   T   T
  0.2499830872701236  0.0001066144371889  0.4699155709925413   T   T   T
  0.2493000786708190  0.2492918900122778  0.4694173725347531   T   T   T
  0.2493045749471411  0.5007444241205142  0.4694155914127402   T   T   T
  0.2500028848248181  0.7499343336825163  0.4699108559812675   T   T   T
  0.4999140327039571  0.0000865283639150  0.4699026481813315   T   T   T
  0.5007975116134649  0.2492555915225850  0.4693953993593936   T   T   T
  0.5008062877943354  0.5007659266850844  0.4693930840750932   T   T   T
  0.4999321346188905  0.7499508555298280  0.4699032099573845   T   T   T
  0.7499346878441342  0.0000752143346087  0.4699124126445995   T   T   T
  0.7500647771465154  0.2500136925964405  0.4698997482896153   T   T   T
  0.7500774623122947  0.4999720664426927  0.4699002879449274   T   T   T
  0.7499567886431212  0.7499210140168215  0.4699086815935478   T   T   T
  0.1261096242498940  0.1260867490319903  0.5309711194443441   T   T   T
  0.1271653789418050  0.3749990926101031  0.5306816490627706   T   T   T
  0.1261522198530200  0.6239189360189809  0.5309647589405683   T   T   T
  0.1250433114020738  0.8750107554156265  0.5304585588438532   T   T   T
  0.3750187895820975  0.1269372260940808  0.5306520469581426   T   T   T
  0.3752046055220725  0.3750426969749880  0.5272925349350207   T   T   T
  0.3750728666871915  0.6231701651330377  0.5306403782386628   T   T   T
  0.3748803926873284  0.8750585877750204  0.5302987645747824   T   T   T
  0.6240281353970966  0.1260078056534765  0.5309196563381399   T   T   T
  0.6233997364959148  0.3750150095937348  0.5306038142292969   T   T   T
  0.6240842395105082  0.6240232392009736  0.5309126730868328   T   T   T
  0.6247776972794269  0.8750230944086381  0.5304260877221552   T   T   T
  0.8751274512043252  0.1251077350038829  0.5304263739916383   T   T   T
  0.8753329722526649  0.3749703733957790  0.5302757740767901   T   T   T
  0.8751790347615575  0.6248302160877770  0.5304236290835410   T   T   T
  0.8749318808940949  0.8749754310508022  0.5305794771050585   T   T   T
  0.9999979489876700  0.0000813085666726  0.5897025874084585   T   T   T
  0.0001595706611731  0.2501962695454945  0.5896877301434099   T   T   T
  0.0002111956602226  0.4997229169310120  0.5896855589009833   T   T   T
  0.0000519375660109  0.7498399525640862  0.5896946867927569   T   T   T
  0.2501403285965333  0.9999156200782294  0.5896618892603948   T   T   T
  0.2500054097446013  0.2496524228363532  0.5916180846245459   T   T   T
  0.2500272083933635  0.5005215349636416  0.5915976978813718   T   T   T
  0.2501966174737115  0.7502115167381320  0.5896583786842066   T   T   T
  0.4996343420103915  0.9998637059718966  0.5896157744763749   T   T   T
  0.5009845986460000  0.2494831228989466  0.5914453632977829   T   T   T
  0.5010534871595053  0.5006741835079052  0.5914305482724026   T   T   T
  0.4996917714523622  0.7502644504751503  0.5896053378966536   T   T   T
  0.7497594761352098  0.0000997066073387  0.5896684837959087   T   T   T
  0.7505334329984780  0.2502449834178086  0.5896043195175715   T   T   T
  0.7505877053217731  0.4997200310659516  0.5895964494773859   T   T   T
  0.7498067535590571  0.7498565280295119  0.5896715504860910   T   T   T
  0.3769169012839048  0.3752418159879389  0.6285296931275837   T   T   T
  0.3783200957716160  0.3753988830216580  0.6699116141532537   T   T   T
 
  0.00000000E+00  0.00000000E+00  0.00000000E+00
  0.00000000E+00  0.00000000E+00  0.00000000E+00
  0.00000000E+00  0.00000000E+00  0.00000000E+00
  0.00000000E+00  0.00000000E+00  0.00000000E+00
  0.00000000E+00  0.00000000E+00  0.00000000E+00
  0.00000000E+00  0.00000000E+00  0.00000000E+00
  0.00000000E+00  0.00000000E+00  0.00000000E+00
  0.00000000E+00  0.00000000E+00  0.00000000E+00
  0.00000000E+00  0.00000000E+00  0.00000000E+00
  0.00000000E+00  0.00000000E+00  0.00000000E+00
  0.00000000E+00  0.00000000E+00  0.00000000E+00
  0.00000000E+00  0.00000000E+00  0.00000000E+00
  0.00000000E+00  0.00000000E+00  0.00000000E+00
  0.00000000E+00  0.00000000E+00  0.00000000E+00
  0.00000000E+00  0.00000000E+00  0.00000000E+00
  0.00000000E+00  0.00000000E+00  0.00000000E+00
  0.00000000E+00  0.00000000E+00  0.00000000E+00
  0.00000000E+00  0.00000000E+00  0.00000000E+00
  0.00000000E+00  0.00000000E+00  0.00000000E+00
  0.00000000E+00  0.00000000E+00  0.00000000E+00
  0.00000000E+00  0.00000000E+00  0.00000000E+00
  0.00000000E+00  0.00000000E+00  0.00000000E+00
  0.00000000E+00  0.00000000E+00  0.00000000E+00
  0.00000000E+00  0.00000000E+00  0.00000000E+00
  0.00000000E+00  0.00000000E+00  0.00000000E+00
  0.00000000E+00  0.00000000E+00  0.00000000E+00
  0.00000000E+00  0.00000000E+00  0.00000000E+00
  0.00000000E+00  0.00000000E+00  0.00000000E+00
  0.00000000E+00  0.00000000E+00  0.00000000E+00
  0.00000000E+00  0.00000000E+00  0.00000000E+00
  0.00000000E+00  0.00000000E+00  0.00000000E+00
  0.00000000E+00  0.00000000E+00  0.00000000E+00
  0.00000000E+00  0.00000000E+00  0.00000000E+00
  0.00000000E+00  0.00000000E+00  0.00000000E+00
  0.00000000E+00  0.00000000E+00  0.00000000E+00
  0.00000000E+00  0.00000000E+00  0.00000000E+00
  0.00000000E+00  0.00000000E+00  0.00000000E+00
  0.00000000E+00  0.00000000E+00  0.00000000E+00
  0.00000000E+00  0.00000000E+00  0.00000000E+00
  0.00000000E+00  0.00000000E+00  0.00000000E+00
  0.00000000E+00  0.00000000E+00  0.00000000E+00
  0.00000000E+00  0.00000000E+00  0.00000000E+00
  0.00000000E+00  0.00000000E+00  0.00000000E+00
  0.00000000E+00  0.00000000E+00  0.00000000E+00
  0.00000000E+00  0.00000000E+00  0.00000000E+00
  0.00000000E+00  0.00000000E+00  0.00000000E+00
  0.00000000E+00  0.00000000E+00  0.00000000E+00
  0.00000000E+00  0.00000000E+00  0.00000000E+00
  0.00000000E+00  0.00000000E+00  0.00000000E+00
  0.00000000E+00  0.00000000E+00  0.00000000E+00
  0.00000000E+00  0.00000000E+00  0.00000000E+00
  0.00000000E+00  0.00000000E+00  0.00000000E+00
  0.00000000E+00  0.00000000E+00  0.00000000E+00
  0.00000000E+00  0.00000000E+00  0.00000000E+00
  0.00000000E+00  0.00000000E+00  0.00000000E+00
  0.00000000E+00  0.00000000E+00  0.00000000E+00
  0.00000000E+00  0.00000000E+00  0.00000000E+00
  0.00000000E+00  0.00000000E+00  0.00000000E+00
  0.00000000E+00  0.00000000E+00  0.00000000E+00
  0.00000000E+00  0.00000000E+00  0.00000000E+00
  0.00000000E+00  0.00000000E+00  0.00000000E+00
  0.00000000E+00  0.00000000E+00  0.00000000E+00
  0.00000000E+00  0.00000000E+00  0.00000000E+00
  0.00000000E+00  0.00000000E+00  0.00000000E+00
  0.00000000E+00  0.00000000E+00  0.00000000E+00
  0.00000000E+00  0.00000000E+00  0.00000000E+00
