K-Point Grid
0
Monkhorst Pack
 4  4  1
 0  0  0

