Pd N O                                  
   1.00000000000000     
    10.9819999999999993    0.0000000000000000    0.0000000000000000
     0.0000000000000000   10.9819999999999993    0.0000000000000000
     0.0000000000000000    0.0000000000000000   30.0000000000000000
   Pd   N    O 
    64     2     1
Selective dynamics
Direct
  0.1249995473439967  0.1249995473439967  0.4029322681199972   F   F   F
  0.1249995473439967  0.3749986420319971  0.4029322681199972   F   F   F
  0.1249995473439967  0.6249977367199975  0.4029322681199972   F   F   F
  0.1249995473439967  0.8749968314079979  0.4029322681199972   F   F   F
  0.3749986420319971  0.1249995473439967  0.4029322681199972   F   F   F
  0.3749986420319971  0.3749986420319971  0.4029322681199972   F   F   F
  0.3749986420319971  0.6249977367199975  0.4029322681199972   F   F   F
  0.3749986420319971  0.8749968314079979  0.4029322681199972   F   F   F
  0.6249977367199975  0.1249995473439967  0.4029322681199972   F   F   F
  0.6249977367199975  0.3749986420319971  0.4029322681199972   F   F   F
  0.6249977367199975  0.6249977367199975  0.4029322681199972   F   F   F
  0.6249977367199975  0.8749968314079979  0.4029322681199972   F   F   F
  0.8749968314079979  0.1249995473439967  0.4029322681199972   F   F   F
  0.8749968314079979  0.3749986420319971  0.4029322681199972   F   F   F
  0.8749968314079979  0.6249977367199975  0.4029322681199972   F   F   F
  0.8749968314079979  0.8749968314079979  0.4029322681199972   F   F   F
  0.0001426090406394  0.0017239376613367  0.4681975812055280   T   T   T
  0.0011791933745950  0.2512788709262170  0.4683595767643950   T   T   T
  0.0002765107335265  0.5000011672773877  0.4683546290110735   T   T   T
  0.9990874281891418  0.7502789368152993  0.4680457836328535   T   T   T
  0.2499252044596228  0.0004288711427519  0.4679387095885739   T   T   T
  0.2498467272835490  0.2505599751560248  0.4684170321354443   T   T   T
  0.2492588238853216  0.4992609927470869  0.4683246919482254   T   T   T
  0.2498693957006843  0.7491956864974529  0.4678908603590546   T   T   T
  0.5003311541360487  0.9996702931916508  0.4679142708845117   T   T   T
  0.4997747284194562  0.2501020566170046  0.4679604609823437   T   T   T
  0.4988347146335143  0.4999524970964888  0.4681102209727491   T   T   T
  0.4996571486676604  0.7494196087722130  0.4679244723601005   T   T   T
  0.7506769244353644  0.0003491217408989  0.4678931730883699   T   T   T
  0.7510609619933351  0.2502559761058452  0.4679116920532616   T   T   T
  0.7502376638584280  0.5009297575078088  0.4680846923817626   T   T   T
  0.7497203953236500  0.7505017211845550  0.4679331589049983   T   T   T
  0.1261948298264138  0.1264956578591554  0.5339286743110858   T   T   T
  0.1258583898933806  0.3756154285383726  0.5348533251046563   T   T   T
  0.1240010657927550  0.6260049624509652  0.5330959088590489   T   T   T
  0.1245660906395469  0.8757960641285748  0.5322733535512083   T   T   T
  0.3755127189522920  0.1245254591033753  0.5326248899333055   T   T   T
  0.3737827812757045  0.3746669221294255  0.5341416202737523   T   T   T
  0.3720156084366300  0.6226917230186154  0.5337936775694007   T   T   T
  0.3751288814433116  0.8734758990467757  0.5322885677255138   T   T   T
  0.6267581859006582  0.1249340687526131  0.5323465981939698   T   T   T
  0.6247826758424886  0.3754620538524110  0.5322234915508932   T   T   T
  0.6234435385456454  0.6255992290914477  0.5326269912375742   T   T   T
  0.6251950141950009  0.8751671742107422  0.5326028454440366   T   T   T
  0.8777904279370662  0.1278011370673360  0.5337084036042030   T   T   T
  0.8753450924743390  0.3759339376268829  0.5331232841170440   T   T   T
  0.8754408849023900  0.6254624427483435  0.5336767192568538   T   T   T
  0.8749319974171939  0.8767011873123628  0.5328929238202712   T   T   T
  0.0010114394982951  0.0019906269359056  0.5984081291598757   T   T   T
  0.9993561103226707  0.2495663976428708  0.6019612650324984   T   T   T
  0.9914552689254976  0.5101643072267373  0.6001524529689946   T   T   T
  0.9992199594192531  0.7550382048668860  0.5983617624801160   T   T   T
  0.2509314182909383  0.9931155371219318  0.5981361941086062   T   T   T
  0.2634893738862364  0.2327215406600854  0.6001336411511895   T   T   T
  0.2509171737464961  0.5081833770110625  0.6015044346693617   T   T   T
  0.2486358225719184  0.7523362400869233  0.5983443893727912   T   T   T
  0.5012800317653706  0.9987212230577541  0.5975638541642927   T   T   T
  0.5053927467038001  0.2491389377145839  0.5977304166272818   T   T   T
  0.4997873181322865  0.4996617282729737  0.5982339600670288   T   T   T
  0.4992456923843908  0.7501181358917752  0.5980126469328572   T   T   T
  0.7503377906468868  0.0011009353516108  0.5980762291734781   T   T   T
  0.7498910056182975  0.2516609512412821  0.5978732025023117   T   T   T
  0.7453972334897836  0.5011068010147153  0.5978042991399419   T   T   T
  0.7483417089244266  0.7520795587715267  0.5980564752259657   T   T   T
  0.1670140033298251  0.4048227912230952  0.6520603804728731   T   T   T
  0.0545267675059413  0.3881135995592137  0.6428214763314124   T   T   T
  0.2358464606519013  0.3101866107414604  0.6630677155977861   T   T   T
 
  0.00000000E+00  0.00000000E+00  0.00000000E+00
  0.00000000E+00  0.00000000E+00  0.00000000E+00
  0.00000000E+00  0.00000000E+00  0.00000000E+00
  0.00000000E+00  0.00000000E+00  0.00000000E+00
  0.00000000E+00  0.00000000E+00  0.00000000E+00
  0.00000000E+00  0.00000000E+00  0.00000000E+00
  0.00000000E+00  0.00000000E+00  0.00000000E+00
  0.00000000E+00  0.00000000E+00  0.00000000E+00
  0.00000000E+00  0.00000000E+00  0.00000000E+00
  0.00000000E+00  0.00000000E+00  0.00000000E+00
  0.00000000E+00  0.00000000E+00  0.00000000E+00
  0.00000000E+00  0.00000000E+00  0.00000000E+00
  0.00000000E+00  0.00000000E+00  0.00000000E+00
  0.00000000E+00  0.00000000E+00  0.00000000E+00
  0.00000000E+00  0.00000000E+00  0.00000000E+00
  0.00000000E+00  0.00000000E+00  0.00000000E+00
  0.00000000E+00  0.00000000E+00  0.00000000E+00
  0.00000000E+00  0.00000000E+00  0.00000000E+00
  0.00000000E+00  0.00000000E+00  0.00000000E+00
  0.00000000E+00  0.00000000E+00  0.00000000E+00
  0.00000000E+00  0.00000000E+00  0.00000000E+00
  0.00000000E+00  0.00000000E+00  0.00000000E+00
  0.00000000E+00  0.00000000E+00  0.00000000E+00
  0.00000000E+00  0.00000000E+00  0.00000000E+00
  0.00000000E+00  0.00000000E+00  0.00000000E+00
  0.00000000E+00  0.00000000E+00  0.00000000E+00
  0.00000000E+00  0.00000000E+00  0.00000000E+00
  0.00000000E+00  0.00000000E+00  0.00000000E+00
  0.00000000E+00  0.00000000E+00  0.00000000E+00
  0.00000000E+00  0.00000000E+00  0.00000000E+00
  0.00000000E+00  0.00000000E+00  0.00000000E+00
  0.00000000E+00  0.00000000E+00  0.00000000E+00
  0.00000000E+00  0.00000000E+00  0.00000000E+00
  0.00000000E+00  0.00000000E+00  0.00000000E+00
  0.00000000E+00  0.00000000E+00  0.00000000E+00
  0.00000000E+00  0.00000000E+00  0.00000000E+00
  0.00000000E+00  0.00000000E+00  0.00000000E+00
  0.00000000E+00  0.00000000E+00  0.00000000E+00
  0.00000000E+00  0.00000000E+00  0.00000000E+00
  0.00000000E+00  0.00000000E+00  0.00000000E+00
  0.00000000E+00  0.00000000E+00  0.00000000E+00
  0.00000000E+00  0.00000000E+00  0.00000000E+00
  0.00000000E+00  0.00000000E+00  0.00000000E+00
  0.00000000E+00  0.00000000E+00  0.00000000E+00
  0.00000000E+00  0.00000000E+00  0.00000000E+00
  0.00000000E+00  0.00000000E+00  0.00000000E+00
  0.00000000E+00  0.00000000E+00  0.00000000E+00
  0.00000000E+00  0.00000000E+00  0.00000000E+00
  0.00000000E+00  0.00000000E+00  0.00000000E+00
  0.00000000E+00  0.00000000E+00  0.00000000E+00
  0.00000000E+00  0.00000000E+00  0.00000000E+00
  0.00000000E+00  0.00000000E+00  0.00000000E+00
  0.00000000E+00  0.00000000E+00  0.00000000E+00
  0.00000000E+00  0.00000000E+00  0.00000000E+00
  0.00000000E+00  0.00000000E+00  0.00000000E+00
  0.00000000E+00  0.00000000E+00  0.00000000E+00
  0.00000000E+00  0.00000000E+00  0.00000000E+00
  0.00000000E+00  0.00000000E+00  0.00000000E+00
  0.00000000E+00  0.00000000E+00  0.00000000E+00
  0.00000000E+00  0.00000000E+00  0.00000000E+00
  0.00000000E+00  0.00000000E+00  0.00000000E+00
  0.00000000E+00  0.00000000E+00  0.00000000E+00
  0.00000000E+00  0.00000000E+00  0.00000000E+00
  0.00000000E+00  0.00000000E+00  0.00000000E+00
  0.00000000E+00  0.00000000E+00  0.00000000E+00
  0.00000000E+00  0.00000000E+00  0.00000000E+00
  0.00000000E+00  0.00000000E+00  0.00000000E+00
