Cu H N O
1.0
 10.091200000000   0.000000000000   0.000000000000
  0.000000000000  10.091200000000   0.000000000000
  0.000000000000   0.000000000000  30.000000000000
Cu H N O
 64   3   1   2
Selective dynamics
Direct
  0.125024049014   0.124996580084   0.410389520084  F F F
  0.125019692665   0.375009429927   0.410380813356  F F F
  0.125016959198   0.625030716011   0.410385753028  F F F
  0.125022516806   0.875017193856   0.410394220591  F F F
  0.375022624087   0.125010594528   0.410412010119  F F F
  0.375022840326   0.375010546536   0.410406145497  F F F
  0.375017420441   0.625022580207   0.410405696389  F F F
  0.375015838964   0.875021973779   0.410410602945  F F F
  0.624977776659   0.125012676791   0.410412009587  F F F
  0.624975435184   0.375010427900   0.410410417789  F F F
  0.624977075914   0.625016449537   0.410407332055  F F F
  0.624979660152   0.875018252286   0.410409070629  F F F
  0.874976482420   0.124999701853   0.410390797518  F F F
  0.874969417174   0.375009382010   0.410385275231  F F F
  0.874973050636   0.625023879565   0.410388861901  F F F
  0.874980442431   0.875013730612   0.410393443416  F F F
  0.999866873663   0.999900676330   0.469897113966  F F F
  0.999785342529   0.249731432030   0.469811724893  F F F
  0.999438353265   0.499951212484   0.469836477506  F F F
  0.999392578786   0.749432739709   0.470011308321  F F F
  0.249594955944   0.000003714779   0.469855532714  F F F
  0.248397329080   0.249180410058   0.469335935288  F F F
  0.248170001146   0.500763638426   0.469340667764  F F F
  0.249395054945   0.749945262292   0.469844601807  F F F
  0.499634499013   0.999848839737   0.469803757148  F F F
  0.499965951191   0.248819210106   0.469212755460  F F F
  0.499883457971   0.501098317303   0.469236435385  F F F
  0.499638381472   0.749679323513   0.469891467861  F F F
  0.749749666354   0.999545269049   0.469825633259  F F F
  0.749752964411   0.249653354405   0.469810623697  F F F
  0.749519264197   0.499864296912   0.469815757573  F F F
  0.749519835802   0.749496194211   0.469882164107  F F F
  0.125301759300   0.126315620750   0.531112083244  F F F
  0.124981458920   0.374782005712   0.530702201508  F F F
  0.124175874576   0.623229484608   0.531143345978  F F F
  0.124391099245   0.874836626095   0.530349170649  F F F
  0.373805236777   0.126612785051   0.530482458523  F F F
  0.373185984942   0.375037259021   0.526701144061  F F F
  0.372909453565   0.623348153759   0.530505016752  F F F
  0.374458026132   0.875029415555   0.530170269623  F F F
  0.623794835659   0.125227618838   0.530539535043  F F F
  0.622016792391   0.374645326565   0.529471712925  F F F
  0.623202969549   0.622823468812   0.531066224244  F F F
  0.624502204321   0.874227849997   0.530381350375  F F F
  0.874058930589   0.124746297619   0.530418830930  F F F
  0.873821155591   0.374332533788   0.529987684389  F F F
  0.872350590957   0.622890068813   0.530864139418  F F F
  0.874222116564   0.874024779234   0.530671526810  F F F
  0.999421191363   0.999828614492   0.589675965947  F F F
  0.998508149957   0.249791215715   0.589752880303  F F F
  0.996550019148   0.499260369506   0.589800300680  F F F
  0.999149399261   0.749465907868   0.589686710981  F F F
  0.249810848245   0.999683587868   0.589607540798  F F F
  0.248164927741   0.249333410136   0.592240701459  F F F
  0.245944185216   0.500438435517   0.592242023285  F F F
  0.249350536935   0.750204374103   0.589534989120  F F F
  0.499694884639   0.000194087399   0.589535484838  F F F
  0.498325736222   0.249893540112   0.589710279798  F F F
  0.496425343089   0.500769097932   0.590176250173  F F F
  0.499099126544   0.750286508594   0.589501608400  F F F
  0.749202860053   0.999740402885   0.589704976654  F F F
  0.748502564369   0.250389733615   0.589982634319  F F F
  0.745308830082   0.493194555912   0.591542353579  F F F
  0.748859062221   0.747230995889   0.589786742789  F F F
  0.680117158034   0.355698098197   0.635639027893  T T T
  0.645115885114   0.237831293079   0.681733182972  T T T
  0.534005395077   0.352051061515   0.678321740992  T T T
  0.371894661098   0.376322892086   0.625772126237  T T T
  0.385487646194   0.377192742087   0.668701811273  T T T
  0.635696396270   0.334386044374   0.679903778355  T T T
