Cu H N O                                
   1.00000000000000     
    10.0912000000000006    0.0000000000000000    0.0000000000000000
     0.0000000000000000   10.0912000000000006    0.0000000000000000
     0.0000000000000000    0.0000000000000000   30.0000000000000000
   Cu   H    N    O 
    64     3     1     2
Selective dynamics
Direct
  0.1249998119670011  0.1249998119670011  0.4104769008810010   F   F   F
  0.1249998119670011  0.3749994359000013  0.4104769008810010   F   F   F
  0.1249998119670011  0.6249990598330015  0.4104769008810010   F   F   F
  0.1249998119670011  0.8749986837660018  0.4104769008810010   F   F   F
  0.3749994359000013  0.1249998119670011  0.4104769008810010   F   F   F
  0.3749994359000013  0.3749994359000013  0.4104769008810010   F   F   F
  0.3749994359000013  0.6249990598330015  0.4104769008810010   F   F   F
  0.3749994359000013  0.8749986837660018  0.4104769008810010   F   F   F
  0.6249990598330015  0.1249998119670011  0.4104769008810010   F   F   F
  0.6249990598330015  0.3749994359000013  0.4104769008810010   F   F   F
  0.6249990598330015  0.6249990598330015  0.4104769008810010   F   F   F
  0.6249990598330015  0.8749986837660018  0.4104769008810010   F   F   F
  0.8749986837660018  0.1249998119670011  0.4104769008810010   F   F   F
  0.8749986837660018  0.3749994359000013  0.4104769008810010   F   F   F
  0.8749986837660018  0.6249990598330015  0.4104769008810010   F   F   F
  0.8749986837660018  0.8749986837660018  0.4104769008810010   F   F   F
  0.0002724855244976  0.0006705980610864  0.4698845429522708   T   T   T
  0.0006735710309270  0.2504397998686163  0.4696645166233450   T   T   T
  0.0004785115781539  0.5008363450017580  0.4696112501002515   T   T   T
  0.9998731962682423  0.7498965188376787  0.4699130250958282   T   T   T
  0.2504879347019923  0.0003769766340378  0.4699320379822102   T   T   T
  0.2500971222112510  0.2496201532940062  0.4694980446818878   T   T   T
  0.2500188455530422  0.5005946499046746  0.4696490040015566   T   T   T
  0.2503100831902557  0.7500851427249512  0.4699523700689583   T   T   T
  0.5001251455402478  0.0001708069565571  0.4698190606837108   T   T   T
  0.5002070254273749  0.2485746993860483  0.4692168627545006   T   T   T
  0.5000413601087483  0.5005116307468136  0.4693828859569569   T   T   T
  0.4998923806154791  0.7495176740076966  0.4698663479823069   T   T   T
  0.7499506765114218  0.0002604771090330  0.4698132712676826   T   T   T
  0.7499551819157240  0.2498779943706212  0.4697736345516862   T   T   T
  0.7495744429610754  0.5000099506382853  0.4698684767708811   T   T   T
  0.7498740388794179  0.7497821263088330  0.4697800876004878   T   T   T
  0.1269754839695127  0.1273933300704578  0.5305807330121425   T   T   T
  0.1272605422900702  0.3765941266247471  0.5302291234081198   T   T   T
  0.1259412808101914  0.6252877391358336  0.5306837360615227   T   T   T
  0.1249803300595803  0.8760689099183731  0.5302494886626126   T   T   T
  0.3769513039576647  0.1275364913914895  0.5314067522679182   T   T   T
  0.3768553014684778  0.3735538155397378  0.5280759851665783   T   T   T
  0.3754145500281371  0.6217424099281936  0.5310356152210479   T   T   T
  0.3754975113659729  0.8750007649934275  0.5300642708397022   T   T   T
  0.6243510902261534  0.1255854668517081  0.5309254567313518   T   T   T
  0.6218697012506144  0.3735374911188362  0.5293287435779075   T   T   T
  0.6236786478644420  0.6229409898894628  0.5306705988552480   T   T   T
  0.6250664424540437  0.8744170736390594  0.5301714317840034   T   T   T
  0.8748073825362247  0.1270707635206902  0.5304744002909962   T   T   T
  0.8757065515989525  0.3762476659407759  0.5292709182276143   T   T   T
  0.8735650498453364  0.6245421496556176  0.5306870282691198   T   T   T
  0.8753771998919019  0.8754802992607102  0.5301730823973736   T   T   T
  0.0002419875785206  0.0010852919125831  0.5893446032915068   T   T   T
  0.0009547646054919  0.2512813904470631  0.5890636700482098   T   T   T
  0.9988146623563898  0.5001982678980427  0.5890974908025267   T   T   T
  0.9998637867646194  0.7504543650233111  0.5894816856792245   T   T   T
  0.2499625291209634  0.0019717240298003  0.5891650874025200   T   T   T
  0.2494771112393826  0.2529351237879172  0.5914157878435409   T   T   T
  0.2462244216689275  0.5061019944995293  0.5921650390485391   T   T   T
  0.2503409760085957  0.7533687138666779  0.5893455615762533   T   T   T
  0.5004932224744928  0.9940234128728257  0.5896561622968092   T   T   T
  0.5023643473836925  0.2440768115490503  0.5941538924579284   T   T   T
  0.4994042046081229  0.4958306798679221  0.5927106293999871   T   T   T
  0.5001633308361313  0.7463598365090260  0.5894493077465044   T   T   T
  0.7510806636492855  0.0018109260262400  0.5890205180392516   T   T   T
  0.7529124090224151  0.2541086634264461  0.5897644332246565   T   T   T
  0.7493923993948985  0.5010962311496563  0.5904802235537177   T   T   T
  0.7495811650570469  0.7509693482444940  0.5893352276732472   T   T   T
  0.6522195838684922  0.3801869389867559  0.6133164210946127   T   T   T
  0.6166930868010380  0.1912333838083740  0.6735397832718322   T   T   T
  0.4698287124995787  0.2448607641103244  0.6783738175459221   T   T   T
  0.3555140544160643  0.3843584540257576  0.6284722740249158   T   T   T
  0.3625014463727949  0.3792068662347238  0.6706873531875067   T   T   T
  0.5249666864276075  0.1717382841209585  0.6655844813926536   T   T   T
 
  0.00000000E+00  0.00000000E+00  0.00000000E+00
  0.00000000E+00  0.00000000E+00  0.00000000E+00
  0.00000000E+00  0.00000000E+00  0.00000000E+00
  0.00000000E+00  0.00000000E+00  0.00000000E+00
  0.00000000E+00  0.00000000E+00  0.00000000E+00
  0.00000000E+00  0.00000000E+00  0.00000000E+00
  0.00000000E+00  0.00000000E+00  0.00000000E+00
  0.00000000E+00  0.00000000E+00  0.00000000E+00
  0.00000000E+00  0.00000000E+00  0.00000000E+00
  0.00000000E+00  0.00000000E+00  0.00000000E+00
  0.00000000E+00  0.00000000E+00  0.00000000E+00
  0.00000000E+00  0.00000000E+00  0.00000000E+00
  0.00000000E+00  0.00000000E+00  0.00000000E+00
  0.00000000E+00  0.00000000E+00  0.00000000E+00
  0.00000000E+00  0.00000000E+00  0.00000000E+00
  0.00000000E+00  0.00000000E+00  0.00000000E+00
  0.00000000E+00  0.00000000E+00  0.00000000E+00
  0.00000000E+00  0.00000000E+00  0.00000000E+00
  0.00000000E+00  0.00000000E+00  0.00000000E+00
  0.00000000E+00  0.00000000E+00  0.00000000E+00
  0.00000000E+00  0.00000000E+00  0.00000000E+00
  0.00000000E+00  0.00000000E+00  0.00000000E+00
  0.00000000E+00  0.00000000E+00  0.00000000E+00
  0.00000000E+00  0.00000000E+00  0.00000000E+00
  0.00000000E+00  0.00000000E+00  0.00000000E+00
  0.00000000E+00  0.00000000E+00  0.00000000E+00
  0.00000000E+00  0.00000000E+00  0.00000000E+00
  0.00000000E+00  0.00000000E+00  0.00000000E+00
  0.00000000E+00  0.00000000E+00  0.00000000E+00
  0.00000000E+00  0.00000000E+00  0.00000000E+00
  0.00000000E+00  0.00000000E+00  0.00000000E+00
  0.00000000E+00  0.00000000E+00  0.00000000E+00
  0.00000000E+00  0.00000000E+00  0.00000000E+00
  0.00000000E+00  0.00000000E+00  0.00000000E+00
  0.00000000E+00  0.00000000E+00  0.00000000E+00
  0.00000000E+00  0.00000000E+00  0.00000000E+00
  0.00000000E+00  0.00000000E+00  0.00000000E+00
  0.00000000E+00  0.00000000E+00  0.00000000E+00
  0.00000000E+00  0.00000000E+00  0.00000000E+00
  0.00000000E+00  0.00000000E+00  0.00000000E+00
  0.00000000E+00  0.00000000E+00  0.00000000E+00
  0.00000000E+00  0.00000000E+00  0.00000000E+00
  0.00000000E+00  0.00000000E+00  0.00000000E+00
  0.00000000E+00  0.00000000E+00  0.00000000E+00
  0.00000000E+00  0.00000000E+00  0.00000000E+00
  0.00000000E+00  0.00000000E+00  0.00000000E+00
  0.00000000E+00  0.00000000E+00  0.00000000E+00
  0.00000000E+00  0.00000000E+00  0.00000000E+00
  0.00000000E+00  0.00000000E+00  0.00000000E+00
  0.00000000E+00  0.00000000E+00  0.00000000E+00
  0.00000000E+00  0.00000000E+00  0.00000000E+00
  0.00000000E+00  0.00000000E+00  0.00000000E+00
  0.00000000E+00  0.00000000E+00  0.00000000E+00
  0.00000000E+00  0.00000000E+00  0.00000000E+00
  0.00000000E+00  0.00000000E+00  0.00000000E+00
  0.00000000E+00  0.00000000E+00  0.00000000E+00
  0.00000000E+00  0.00000000E+00  0.00000000E+00
  0.00000000E+00  0.00000000E+00  0.00000000E+00
  0.00000000E+00  0.00000000E+00  0.00000000E+00
  0.00000000E+00  0.00000000E+00  0.00000000E+00
  0.00000000E+00  0.00000000E+00  0.00000000E+00
  0.00000000E+00  0.00000000E+00  0.00000000E+00
  0.00000000E+00  0.00000000E+00  0.00000000E+00
  0.00000000E+00  0.00000000E+00  0.00000000E+00
  0.00000000E+00  0.00000000E+00  0.00000000E+00
  0.00000000E+00  0.00000000E+00  0.00000000E+00
  0.00000000E+00  0.00000000E+00  0.00000000E+00
  0.00000000E+00  0.00000000E+00  0.00000000E+00
  0.00000000E+00  0.00000000E+00  0.00000000E+00
  0.00000000E+00  0.00000000E+00  0.00000000E+00
