Pd N O                                  
   1.00000000000000     
    10.9819999999999993    0.0000000000000000    0.0000000000000000
     0.0000000000000000   10.9819999999999993    0.0000000000000000
     0.0000000000000000    0.0000000000000000   30.0000000000000000
   Pd   N    O 
    64     2     1
Selective dynamics
Direct
  0.1249585471339998  0.1249963498650004  0.4028067100730013   F   F   F
  0.1249475323820022  0.3749918675859973  0.4027947166069978   F   F   F
  0.1249456295600027  0.6250341499670000  0.4027844508940035   F   F   F
  0.1249581074780011  0.8750331808689964  0.4028011621360008   F   F   F
  0.3750215556369980  0.1249934390460012  0.4028011602090018   F   F   F
  0.3750266122220012  0.3749939658800017  0.4027878956069983   F   F   F
  0.3750315889000007  0.6250352259449983  0.4027824248979996   F   F   F
  0.3750267634699966  0.8750301514670014  0.4027985281189999   F   F   F
  0.6250340499519993  0.1250010363590022  0.4028283957229988   F   F   F
  0.6250367038470017  0.3749997678480028  0.4028240094280022   F   F   F
  0.6250376915520022  0.6250172525610012  0.4028211003059994   F   F   F
  0.6250334070839969  0.8750173820800029  0.4028261054629994   F   F   F
  0.8749668923540028  0.1250053635629982  0.4028350140539985   F   F   F
  0.8749594056249990  0.3749979016769984  0.4028307009710019   F   F   F
  0.8749526712149986  0.6250145265059999  0.4028245641870001   F   F   F
  0.8749594696179983  0.8750215674659998  0.4028285466839989   F   F   F
  0.0002007998415471  0.0014339107964549  0.4682378790427540   T   T   T
  0.0012271571961694  0.2508760308842608  0.4683206749805103   T   T   T
  0.0001894868711367  0.4999607023399405  0.4682553620058975   T   T   T
  0.9993335244810179  0.7502046790466619  0.4679819270318137   T   T   T
  0.2496505780463243  0.9996611232809501  0.4678915407885640   T   T   T
  0.2497608028099768  0.2500601113270161  0.4681878842455726   T   T   T
  0.2488785400604352  0.4988303634515957  0.4681674914331059   T   T   T
  0.2493659904043107  0.7484407365529782  0.4680290328025106   T   T   T
  0.5002150154887184  0.9993629006340724  0.4677336352513408   T   T   T
  0.5001129956027233  0.2496737903121121  0.4677484514889018   T   T   T
  0.4986634876777589  0.5000212815782222  0.4678940123807260   T   T   T
  0.4992107173176022  0.7494485190900337  0.4677440017492204   T   T   T
  0.7507170452416556  0.0005457317508207  0.4677625707442267   T   T   T
  0.7514539031161580  0.2501533278338822  0.4678707422761184   T   T   T
  0.7501233522005751  0.5006041319415750  0.4678633172932896   T   T   T
  0.7493747814295453  0.7506922767610109  0.4675302601862049   T   T   T
  0.1260409628989102  0.1265079980444848  0.5341514415783408   T   T   T
  0.1264838670849074  0.3751085768486465  0.5347211554404239   T   T   T
  0.1235420171682309  0.6236738288198536  0.5337593049303238   T   T   T
  0.1245079559148475  0.8748263756908127  0.5325875263432813   T   T   T
  0.3751563882946187  0.1238527942899229  0.5323976204057547   T   T   T
  0.3745121407278683  0.3739828327842868  0.5334198755576618   T   T   T
  0.3714666036744969  0.6216966456878706  0.5337505584867070   T   T   T
  0.3749015834654804  0.8728679369398298  0.5323750871707309   T   T   T
  0.6265894445508099  0.1244397738435158  0.5321268386506122   T   T   T
  0.6252070792301785  0.3751287415071869  0.5320900224757149   T   T   T
  0.6231291314799039  0.6254311678024733  0.5322556166400277   T   T   T
  0.6251442548201170  0.8748261760847909  0.5323472222327436   T   T   T
  0.8781175595882972  0.1273651878125957  0.5338901214765173   T   T   T
  0.8757435347476739  0.3757621111036090  0.5329267319391409   T   T   T
  0.8744962154158046  0.6260613282446493  0.5330568287817989   T   T   T
  0.8750347764873416  0.8765226647112829  0.5328345997288054   T   T   T
  0.0007194797136417  0.0016295320703231  0.5987097169850990   T   T   T
  0.0029980759775080  0.2505586076531338  0.6025290113243101   T   T   T
  0.9924881719475290  0.5090140738293371  0.6002199375339748   T   T   T
  0.9985798421777452  0.7536055639652565  0.5984249685408537   T   T   T
  0.2513775362118451  0.9934278943092207  0.5979075118528289   T   T   T
  0.2613165514901882  0.2364787579953776  0.6001370989014242   T   T   T
  0.2508025506527946  0.4993656282751728  0.6031989849367267   T   T   T
  0.2492851306997045  0.7489434621323077  0.5983032576437975   T   T   T
  0.5010791270878669  0.9985218159436529  0.5974733373968336   T   T   T
  0.5054273587906659  0.2484932316614765  0.5971888019624001   T   T   T
  0.4996876425071617  0.4988514973207518  0.5978556065592834   T   T   T
  0.4993632543595485  0.7493985423843432  0.5977734006852662   T   T   T
  0.7499210480923848  0.0002762350851302  0.5979236243541259   T   T   T
  0.7506250987606091  0.2508774023833272  0.5976376091595033   T   T   T
  0.7453392022433348  0.5012453837585443  0.5974501815950816   T   T   T
  0.7481504105268184  0.7516487343861644  0.5978375608163884   T   T   T
  0.1967979587770474  0.4140123951228513  0.6592354473240134   T   T   T
  0.0297894761766509  0.3851350306016900  0.6405212003508731   T   T   T
  0.2437971255529470  0.3144283587639827  0.6660883973102462   T   T   T
 
  0.00000000E+00  0.00000000E+00  0.00000000E+00
  0.00000000E+00  0.00000000E+00  0.00000000E+00
  0.00000000E+00  0.00000000E+00  0.00000000E+00
  0.00000000E+00  0.00000000E+00  0.00000000E+00
  0.00000000E+00  0.00000000E+00  0.00000000E+00
  0.00000000E+00  0.00000000E+00  0.00000000E+00
  0.00000000E+00  0.00000000E+00  0.00000000E+00
  0.00000000E+00  0.00000000E+00  0.00000000E+00
  0.00000000E+00  0.00000000E+00  0.00000000E+00
  0.00000000E+00  0.00000000E+00  0.00000000E+00
  0.00000000E+00  0.00000000E+00  0.00000000E+00
  0.00000000E+00  0.00000000E+00  0.00000000E+00
  0.00000000E+00  0.00000000E+00  0.00000000E+00
  0.00000000E+00  0.00000000E+00  0.00000000E+00
  0.00000000E+00  0.00000000E+00  0.00000000E+00
  0.00000000E+00  0.00000000E+00  0.00000000E+00
  0.00000000E+00  0.00000000E+00  0.00000000E+00
  0.00000000E+00  0.00000000E+00  0.00000000E+00
  0.00000000E+00  0.00000000E+00  0.00000000E+00
  0.00000000E+00  0.00000000E+00  0.00000000E+00
  0.00000000E+00  0.00000000E+00  0.00000000E+00
  0.00000000E+00  0.00000000E+00  0.00000000E+00
  0.00000000E+00  0.00000000E+00  0.00000000E+00
  0.00000000E+00  0.00000000E+00  0.00000000E+00
  0.00000000E+00  0.00000000E+00  0.00000000E+00
  0.00000000E+00  0.00000000E+00  0.00000000E+00
  0.00000000E+00  0.00000000E+00  0.00000000E+00
  0.00000000E+00  0.00000000E+00  0.00000000E+00
  0.00000000E+00  0.00000000E+00  0.00000000E+00
  0.00000000E+00  0.00000000E+00  0.00000000E+00
  0.00000000E+00  0.00000000E+00  0.00000000E+00
  0.00000000E+00  0.00000000E+00  0.00000000E+00
  0.00000000E+00  0.00000000E+00  0.00000000E+00
  0.00000000E+00  0.00000000E+00  0.00000000E+00
  0.00000000E+00  0.00000000E+00  0.00000000E+00
  0.00000000E+00  0.00000000E+00  0.00000000E+00
  0.00000000E+00  0.00000000E+00  0.00000000E+00
  0.00000000E+00  0.00000000E+00  0.00000000E+00
  0.00000000E+00  0.00000000E+00  0.00000000E+00
  0.00000000E+00  0.00000000E+00  0.00000000E+00
  0.00000000E+00  0.00000000E+00  0.00000000E+00
  0.00000000E+00  0.00000000E+00  0.00000000E+00
  0.00000000E+00  0.00000000E+00  0.00000000E+00
  0.00000000E+00  0.00000000E+00  0.00000000E+00
  0.00000000E+00  0.00000000E+00  0.00000000E+00
  0.00000000E+00  0.00000000E+00  0.00000000E+00
  0.00000000E+00  0.00000000E+00  0.00000000E+00
  0.00000000E+00  0.00000000E+00  0.00000000E+00
  0.00000000E+00  0.00000000E+00  0.00000000E+00
  0.00000000E+00  0.00000000E+00  0.00000000E+00
  0.00000000E+00  0.00000000E+00  0.00000000E+00
  0.00000000E+00  0.00000000E+00  0.00000000E+00
  0.00000000E+00  0.00000000E+00  0.00000000E+00
  0.00000000E+00  0.00000000E+00  0.00000000E+00
  0.00000000E+00  0.00000000E+00  0.00000000E+00
  0.00000000E+00  0.00000000E+00  0.00000000E+00
  0.00000000E+00  0.00000000E+00  0.00000000E+00
  0.00000000E+00  0.00000000E+00  0.00000000E+00
  0.00000000E+00  0.00000000E+00  0.00000000E+00
  0.00000000E+00  0.00000000E+00  0.00000000E+00
  0.00000000E+00  0.00000000E+00  0.00000000E+00
  0.00000000E+00  0.00000000E+00  0.00000000E+00
  0.00000000E+00  0.00000000E+00  0.00000000E+00
  0.00000000E+00  0.00000000E+00  0.00000000E+00
  0.00000000E+00  0.00000000E+00  0.00000000E+00
  0.00000000E+00  0.00000000E+00  0.00000000E+00
  0.00000000E+00  0.00000000E+00  0.00000000E+00
