N O Pd
1.0
 10.982000000000   0.000000000000   0.000000000000
  0.000000000000  10.982000000000   0.000000000000
  0.000000000000   0.000000000000  30.000000000000
N O Pd
 11  10  64
Selective dynamics
Direct
  0.365045271826   0.275203750051   0.639889048902  T T T
  0.373597709619   0.004789980751   0.650635671538  T T T
  0.314610445936   0.437919578451   0.663922883072  T T T
  0.744955842113   0.377996756095   0.650899718615  F F F
  0.653382862206   0.094932008597   0.644864126095  F F F
  0.649640089234   0.653850942075   0.642895041002  F F F
  0.007274407104   0.374897038090   0.650858099896  F F F
  0.092538223024   0.090782512842   0.644905557016  F F F
  0.095205578374   0.656111081904   0.644562406558  F F F
  0.872234562264   0.873194144751   0.640635879625  F F F
  0.375158708847   0.751641949123   0.649443197639  T T T
  0.373226331063   0.017337556906   0.689998508477  T T T
  0.396129406804   0.484812438804   0.683626290054  T T T
  0.713718350235   0.380724079848   0.688959975950  F F F
  0.659352263523   0.088245159128   0.684905189786  F F F
  0.652377870816   0.658051729561   0.683052186324  F F F
  0.032928552269   0.374631772646   0.689463188395  F F F
  0.086487650897   0.084518648547   0.684922889222  F F F
  0.089446711266   0.662974305125   0.684623486776  F F F
  0.871860227282   0.872599139224   0.680973598814  F F F
  0.377078594834   0.736141569493   0.688750034867  T T T
  0.124991650423   0.124983349989   0.402696547962  F F F
  0.124970230749   0.374951950881   0.402674025354  F F F
  0.124992361084   0.625007577226   0.402666655974  F F F
  0.125011627134   0.875031239655   0.402688819575  F F F
  0.374982145235   0.124980364640   0.402691944558  F F F
  0.374984209841   0.374938595083   0.402667426841  F F F
  0.374979029519   0.624993252571   0.402654476971  F F F
  0.374975683110   0.875028848383   0.402681331385  F F F
  0.625002415132   0.124993844629   0.402686584371  F F F
  0.625017962241   0.374932730203   0.402669018629  F F F
  0.625017408949   0.624970790916   0.402642595351  F F F
  0.625001647139   0.875032889713   0.402660244211  F F F
  0.875011904528   0.124998676142   0.402691403928  F F F
  0.875009890531   0.374947070943   0.402677990231  F F F
  0.875032286049   0.624985178669   0.402655939922  F F F
  0.875036234228   0.875035912539   0.402667932722  F F F
  0.999666593821   0.000403612414   0.467728926342  F F F
  0.998410031837   0.250827699208   0.468371355946  F F F
  0.999290749660   0.499315651899   0.468325214704  F F F
  0.000745618628   0.749319681910   0.468010323626  F F F
  0.249981204140   0.998748223061   0.468287641513  F F F
  0.248605763839   0.248994570095   0.467664739179  F F F
  0.248554619677   0.501651038204   0.467287158211  F F F
  0.250038322453   0.751660805782   0.468358502755  F F F
  0.499199352749   0.999560654353   0.468223210197  F F F
  0.500884420304   0.249327390014   0.467424392312  F F F
  0.502062520845   0.502262250529   0.467321791115  F F F
  0.499107979099   0.752729763256   0.468103577829  F F F
  0.748988270925   0.001509017476   0.467958661092  F F F
  0.751142106599   0.250952236077   0.468497046915  F F F
  0.752714913955   0.499633147631   0.468084420426  F F F
  0.750235269030   0.750693119478   0.467832864314  F F F
  0.122122579992   0.123478232647   0.533795097815  F F F
  0.123283718529   0.375844965957   0.532716873989  F F F
  0.125135235632   0.624636138262   0.534708746935  F F F
  0.127158088042   0.874759409741   0.533927543185  F F F
  0.375331304503   0.122354406163   0.532103326973  F F F
  0.375101382396   0.378198863217   0.529744651831  F F F
  0.373644153064   0.628945295924   0.531936841609  F F F
  0.374185357067   0.875852274494   0.537864227088  F F F
  0.624537702724   0.126606344554   0.534764812541  F F F
  0.628215593475   0.374614931701   0.532088478986  F F F
  0.629101626677   0.629495183445   0.532704767057  F F F
  0.621468205955   0.877781969685   0.533665532212  F F F
  0.873762383537   0.128876696129   0.534248601797  F F F
  0.875612143725   0.375353327476   0.538350374325  F F F
  0.876723646754   0.622015349904   0.533917899642  F F F
  0.874506776195   0.875682167927   0.532350626144  F F F
  0.994429899505   0.995649332542   0.600397589759  F F F
  0.005254919421   0.243206734295   0.605290878034  F F F
  0.010405713998   0.505553092775   0.605316410872  F F F
  0.995881469095   0.752950076891   0.600393562331  F F F
  0.241833142667   0.005154941263   0.604945406032  F F F
  0.248267681334   0.251662163811   0.595164348242  F F F
  0.261955890902   0.495776820060   0.601133446830  F F F
  0.242988492292   0.741940375356   0.604590325750  F F F
  0.504659690016   0.010486149723   0.605024998905  F F F
  0.495223766437   0.262036836744   0.599015008680  F F F
  0.503477515396   0.503458769524   0.593460146969  F F F
  0.505927796551   0.747261438552   0.603738960841  F F F
  0.751726489361   0.997637354358   0.600604261844  F F F
  0.740475570088   0.245433041333   0.605590048278  F F F
  0.745866435403   0.506847120013   0.604546478027  F F F
  0.753183586654   0.754495794043   0.600059042653  F F F
