Pd N O H                                
   1.00000000000000     
    10.9819999999999993    0.0000000000000000    0.0000000000000000
     0.0000000000000000   10.9819999999999993    0.0000000000000000
     0.0000000000000000    0.0000000000000000   30.0000000000000000
   Pd   N    O    H 
    64     1     2     3
Selective dynamics
Direct
  0.1250089591709980  0.1250041072780022  0.4029163028450000   F   F   F
  0.1250118675210032  0.3749980985739967  0.4029120627450027   F   F   F
  0.1250114963700000  0.6250086165370021  0.4029098106329982   F   F   F
  0.1250084461719965  0.8750123309670030  0.4029144320140006   F   F   F
  0.3750053335029975  0.1250081197149981  0.4029208313990011   F   F   F
  0.3750047832109971  0.3749980109059976  0.4029175281430000   F   F   F
  0.3749998678400033  0.6250071686320027  0.4029123436409989   F   F   F
  0.3750010449699985  0.8750149989409977  0.4029161339700025   F   F   F
  0.6249958509559974  0.1250105767869982  0.4029209184529989   F   F   F
  0.6249941725520003  0.3749968560110020  0.4029164087160026   F   F   F
  0.6249937762749980  0.6250104975149995  0.4029079594140015   F   F   F
  0.6249957022450019  0.8750193791169991  0.4029136749179969   F   F   F
  0.8749984852539967  0.1250056479649970  0.4029158024370005   F   F   F
  0.8750018562059978  0.3749964042419975  0.4029093866650015   F   F   F
  0.8750058599299990  0.6250125032729983  0.4029044600880027   F   F   F
  0.8750017174609965  0.8750175922070014  0.4029117540749994   F   F   F
  0.9998804341400103  0.9997447195502076  0.4680461017304793   T   T   T
  0.9994845724331043  0.2495175321092731  0.4680542694963776   T   T   T
  0.9989562561491709  0.5000561114006956  0.4682101762322048   T   T   T
  0.9997821847911936  0.7497634637661150  0.4679382131678551   T   T   T
  0.2492557873621735  0.9998505943495530  0.4680683194882747   T   T   T
  0.2487650707587505  0.2494416928386016  0.4678796646024068   T   T   T
  0.2485891634232900  0.5000911778422221  0.4679758537295413   T   T   T
  0.2491526993574382  0.7498577773022461  0.4680393232991733   T   T   T
  0.5001092254480426  0.9996514438951323  0.4679172181531470   T   T   T
  0.4997695537036364  0.2494054941788306  0.4679185644511961   T   T   T
  0.4997653168215592  0.5000365335932955  0.4679205327357607   T   T   T
  0.5000983440474798  0.7497346311128723  0.4679565900196749   T   T   T
  0.7500228162567097  0.9993148885981995  0.4681167593115276   T   T   T
  0.7497428569975213  0.2492535188427638  0.4681806674183520   T   T   T
  0.7494259486822301  0.4997736454471067  0.4681391868583660   T   T   T
  0.7499396031164451  0.7491915661481059  0.4682426413616909   T   T   T
  0.1255520979051781  0.1262875941236743  0.5339230551687706   T   T   T
  0.1227240737000983  0.3744997422772514  0.5332462645964640   T   T   T
  0.1247676380254177  0.6229209489762297  0.5338284954681924   T   T   T
  0.1244383593627916  0.8746341764574694  0.5330456889718960   T   T   T
  0.3737735710952634  0.1236896914601004  0.5326832295525179   T   T   T
  0.3728411083010030  0.3744390463862501  0.5311608055022674   T   T   T
  0.3735528268056854  0.6254879349811233  0.5325928478990178   T   T   T
  0.3747346082850669  0.8746700413409556  0.5328258940347226   T   T   T
  0.6232907489450668  0.1247853437469644  0.5334731599820230   T   T   T
  0.6248450941729473  0.3741672626530104  0.5328290185599869   T   T   T
  0.6232077824768538  0.6229177562083166  0.5337968124453312   T   T   T
  0.6247061458062504  0.8739202004174658  0.5330987135762868   T   T   T
  0.8747315667353988  0.1241326961356108  0.5331081653711820   T   T   T
  0.8735191518961614  0.3745763536481732  0.5334060662264051   T   T   T
  0.8735899542726315  0.6238036719281936  0.5334481168723215   T   T   T
  0.8746212751997930  0.8739405710146073  0.5331277608323006   T   T   T
  0.9994578157208522  0.9991694154179882  0.5982573137565979   T   T   T
  0.9981048975569564  0.2492922328410927  0.5987635571499652   T   T   T
  0.9958996155171107  0.4993602368759085  0.5987786730560671   T   T   T
  0.9994308021732792  0.7494065706843500  0.5983258554285555   T   T   T
  0.2496671056000395  0.9991912640538274  0.5983983245292066   T   T   T
  0.2496259355457511  0.2504511659285242  0.6006461821380853   T   T   T
  0.2486077807140958  0.4984512309113072  0.6003989903887543   T   T   T
  0.2494067687683312  0.7496863021441129  0.5981537982971901   T   T   T
  0.4993251874568330  0.9988876389146739  0.5983280398636524   T   T   T
  0.4972428744013655  0.2489932859980826  0.5987669017573651   T   T   T
  0.4957992405534242  0.4992060874257120  0.5985003079420821   T   T   T
  0.4988440473522004  0.7499358054126830  0.5984515185847030   T   T   T
  0.7495086009519270  0.9983669629203789  0.5983619327231651   T   T   T
  0.7486258214532810  0.2475825796484301  0.5982224087411865   T   T   T
  0.7438579420548876  0.4962080024404685  0.6009564523920261   T   T   T
  0.7493773494055631  0.7475824258769705  0.5984548304556228   T   T   T
  0.3775977196719396  0.3737408787362213  0.6330595216410089   T   T   T
  0.3878312570523477  0.3744560102532830  0.6748681315669600   T   T   T
  0.6337898429476709  0.3951507338264904  0.6868372761526160   T   T   T
  0.6624081974710805  0.3104281902181185  0.6830164440480289   T   T   T
  0.5414162658180146  0.3901658693714651  0.6861061989991697   T   T   T
  0.6632218862815904  0.4381125391214482  0.6496634042288534   T   T   T
 
  0.00000000E+00  0.00000000E+00  0.00000000E+00
  0.00000000E+00  0.00000000E+00  0.00000000E+00
  0.00000000E+00  0.00000000E+00  0.00000000E+00
  0.00000000E+00  0.00000000E+00  0.00000000E+00
  0.00000000E+00  0.00000000E+00  0.00000000E+00
  0.00000000E+00  0.00000000E+00  0.00000000E+00
  0.00000000E+00  0.00000000E+00  0.00000000E+00
  0.00000000E+00  0.00000000E+00  0.00000000E+00
  0.00000000E+00  0.00000000E+00  0.00000000E+00
  0.00000000E+00  0.00000000E+00  0.00000000E+00
  0.00000000E+00  0.00000000E+00  0.00000000E+00
  0.00000000E+00  0.00000000E+00  0.00000000E+00
  0.00000000E+00  0.00000000E+00  0.00000000E+00
  0.00000000E+00  0.00000000E+00  0.00000000E+00
  0.00000000E+00  0.00000000E+00  0.00000000E+00
  0.00000000E+00  0.00000000E+00  0.00000000E+00
  0.00000000E+00  0.00000000E+00  0.00000000E+00
  0.00000000E+00  0.00000000E+00  0.00000000E+00
  0.00000000E+00  0.00000000E+00  0.00000000E+00
  0.00000000E+00  0.00000000E+00  0.00000000E+00
  0.00000000E+00  0.00000000E+00  0.00000000E+00
  0.00000000E+00  0.00000000E+00  0.00000000E+00
  0.00000000E+00  0.00000000E+00  0.00000000E+00
  0.00000000E+00  0.00000000E+00  0.00000000E+00
  0.00000000E+00  0.00000000E+00  0.00000000E+00
  0.00000000E+00  0.00000000E+00  0.00000000E+00
  0.00000000E+00  0.00000000E+00  0.00000000E+00
  0.00000000E+00  0.00000000E+00  0.00000000E+00
  0.00000000E+00  0.00000000E+00  0.00000000E+00
  0.00000000E+00  0.00000000E+00  0.00000000E+00
  0.00000000E+00  0.00000000E+00  0.00000000E+00
  0.00000000E+00  0.00000000E+00  0.00000000E+00
  0.00000000E+00  0.00000000E+00  0.00000000E+00
  0.00000000E+00  0.00000000E+00  0.00000000E+00
  0.00000000E+00  0.00000000E+00  0.00000000E+00
  0.00000000E+00  0.00000000E+00  0.00000000E+00
  0.00000000E+00  0.00000000E+00  0.00000000E+00
  0.00000000E+00  0.00000000E+00  0.00000000E+00
  0.00000000E+00  0.00000000E+00  0.00000000E+00
  0.00000000E+00  0.00000000E+00  0.00000000E+00
  0.00000000E+00  0.00000000E+00  0.00000000E+00
  0.00000000E+00  0.00000000E+00  0.00000000E+00
  0.00000000E+00  0.00000000E+00  0.00000000E+00
  0.00000000E+00  0.00000000E+00  0.00000000E+00
  0.00000000E+00  0.00000000E+00  0.00000000E+00
  0.00000000E+00  0.00000000E+00  0.00000000E+00
  0.00000000E+00  0.00000000E+00  0.00000000E+00
  0.00000000E+00  0.00000000E+00  0.00000000E+00
  0.00000000E+00  0.00000000E+00  0.00000000E+00
  0.00000000E+00  0.00000000E+00  0.00000000E+00
  0.00000000E+00  0.00000000E+00  0.00000000E+00
  0.00000000E+00  0.00000000E+00  0.00000000E+00
  0.00000000E+00  0.00000000E+00  0.00000000E+00
  0.00000000E+00  0.00000000E+00  0.00000000E+00
  0.00000000E+00  0.00000000E+00  0.00000000E+00
  0.00000000E+00  0.00000000E+00  0.00000000E+00
  0.00000000E+00  0.00000000E+00  0.00000000E+00
  0.00000000E+00  0.00000000E+00  0.00000000E+00
  0.00000000E+00  0.00000000E+00  0.00000000E+00
  0.00000000E+00  0.00000000E+00  0.00000000E+00
  0.00000000E+00  0.00000000E+00  0.00000000E+00
  0.00000000E+00  0.00000000E+00  0.00000000E+00
  0.00000000E+00  0.00000000E+00  0.00000000E+00
  0.00000000E+00  0.00000000E+00  0.00000000E+00
  0.00000000E+00  0.00000000E+00  0.00000000E+00
  0.00000000E+00  0.00000000E+00  0.00000000E+00
  0.00000000E+00  0.00000000E+00  0.00000000E+00
  0.00000000E+00  0.00000000E+00  0.00000000E+00
  0.00000000E+00  0.00000000E+00  0.00000000E+00
  0.00000000E+00  0.00000000E+00  0.00000000E+00
