H N O Pd                                
   1.00000000000000     
    10.9819999999999993    0.0000000000000000    0.0000000000000000
     0.0000000000000000   10.9819999999999993    0.0000000000000000
     0.0000000000000000    0.0000000000000000   30.0000000000000000
   H    N    O    Pd
     3     1     2    64
Selective dynamics
Direct
  0.3660555070162829  0.6393737512798486  0.6108354943049921   T   T   T
  0.4457129426451685  0.5657394991313250  0.6881034530501118   T   T   T
  0.4676644286846671  0.4256828002870259  0.6902858278225630   T   T   T
  0.3747267600965209  0.2443368394178900  0.6459114832336638   T   T   T
  0.3765781174562091  0.2716872078892699  0.6850894047043032   T   T   T
  0.5049115876440028  0.5026746185869473  0.6806550500229338   T   T   T
  0.1249995473439967  0.1249995473439967  0.4029322681199972   F   F   F
  0.1249995473439967  0.3749986420319971  0.4029322681199972   F   F   F
  0.1249995473439967  0.6249977367199975  0.4029322681199972   F   F   F
  0.1249995473439967  0.8749968314079979  0.4029322681199972   F   F   F
  0.3749986420319971  0.1249995473439967  0.4029322681199972   F   F   F
  0.3749986420319971  0.3749986420319971  0.4029322681199972   F   F   F
  0.3749986420319971  0.6249977367199975  0.4029322681199972   F   F   F
  0.3749986420319971  0.8749968314079979  0.4029322681199972   F   F   F
  0.6249977367199975  0.1249995473439967  0.4029322681199972   F   F   F
  0.6249977367199975  0.3749986420319971  0.4029322681199972   F   F   F
  0.6249977367199975  0.6249977367199975  0.4029322681199972   F   F   F
  0.6249977367199975  0.8749968314079979  0.4029322681199972   F   F   F
  0.8749968314079979  0.1249995473439967  0.4029322681199972   F   F   F
  0.8749968314079979  0.3749986420319971  0.4029322681199972   F   F   F
  0.8749968314079979  0.6249977367199975  0.4029322681199972   F   F   F
  0.8749968314079979  0.8749968314079979  0.4029322681199972   F   F   F
  0.9996835388511497  0.0004120979007508  0.4677223679568233   T   T   T
  0.0005184338357133  0.2500423693285328  0.4683448402747587   T   T   T
  0.0001426609072220  0.4994264410135157  0.4679459928079547   T   T   T
  0.9998261951055122  0.7500585999485048  0.4680387243498291   T   T   T
  0.2494414765195510  0.0006656202612923  0.4680415985643764   T   T   T
  0.2503293210337828  0.2502708271465540  0.4683998332492986   T   T   T
  0.2500137119703141  0.4993855570264022  0.4681633380364166   T   T   T
  0.2498415903009507  0.7499482601972043  0.4679316163964532   T   T   T
  0.5002430904998062  0.0006645514719679  0.4679741303617127   T   T   T
  0.4996533000143948  0.2502755814271418  0.4684830487291303   T   T   T
  0.5004068956023593  0.4991757743754974  0.4679971067460482   T   T   T
  0.4998978180638831  0.7497350744625375  0.4680296420984988   T   T   T
  0.7499398230726644  0.0002914752556382  0.4677699144867452   T   T   T
  0.7492783005362805  0.2499914562453691  0.4683584089154567   T   T   T
  0.7498421298174699  0.4993362635049476  0.4680635613400236   T   T   T
  0.7497268550923515  0.7498289467599536  0.4680221908295215   T   T   T
  0.1253141560940351  0.1261508331798477  0.5337147773004703   T   T   T
  0.1265454797741605  0.3740986557121311  0.5341823021954724   T   T   T
  0.1243474673853181  0.6249022453139712  0.5326688067743678   T   T   T
  0.1245768717988843  0.8753449526675054  0.5327448794992942   T   T   T
  0.3745580377105132  0.1260922086030644  0.5335772970551685   T   T   T
  0.3758762118462499  0.3755898029825887  0.5339210185117490   T   T   T
  0.3758763660486165  0.6242901251474039  0.5324174047323321   T   T   T
  0.3743575356590485  0.8756563566997128  0.5324380071678427   T   T   T
  0.6243190322569567  0.1259809969698991  0.5336341688940271   T   T   T
  0.6230776462846778  0.3745690189177811  0.5345200760088590   T   T   T
  0.6248231440944576  0.6234213234267265  0.5330294165244575   T   T   T
  0.6246430853065973  0.8748944345723479  0.5326550360398870   T   T   T
  0.8748344386784509  0.1248636857477875  0.5327993816470409   T   T   T
  0.8751484675134977  0.3749574003716624  0.5329579223561708   T   T   T
  0.8748351716058592  0.6248686123421667  0.5327342991218692   T   T   T
  0.8746130172424644  0.8751004104891703  0.5326321865247301   T   T   T
  0.9988704932913918  0.9996282064542894  0.5981582812803231   T   T   T
  0.9980297508870977  0.2499536900406229  0.5985501073771616   T   T   T
  0.9999389559265455  0.5006878565066558  0.5984428669329229   T   T   T
  0.9987902826939890  0.7503968061839541  0.5978622899994601   T   T   T
  0.2490419267188967  0.9983429829450009  0.5978914519082577   T   T   T
  0.2443505181949926  0.2516410406685955  0.6020954847463592   T   T   T
  0.2498847873361614  0.5037227908897557  0.5984796698653647   T   T   T
  0.2485512830298640  0.7515723264639538  0.5987905681575333   T   T   T
  0.5002270011911794  0.9976473100015322  0.5978822143205272   T   T   T
  0.5044809219031884  0.2491584777174708  0.6017017944961051   T   T   T
  0.5019193790831070  0.5034856099820350  0.6016472981335664   T   T   T
  0.4991607818539603  0.7513059266135370  0.5981945119867779   T   T   T
  0.7502409368370916  0.9992548129666503  0.5980816603710237   T   T   T
  0.7514407250082853  0.2494576731722071  0.5985966611592523   T   T   T
  0.7527364804292567  0.5001565957649529  0.5981549651093450   T   T   T
  0.7491774926887811  0.7500952877387659  0.5978841944270759   T   T   T
 
  0.00000000E+00  0.00000000E+00  0.00000000E+00
  0.00000000E+00  0.00000000E+00  0.00000000E+00
  0.00000000E+00  0.00000000E+00  0.00000000E+00
  0.00000000E+00  0.00000000E+00  0.00000000E+00
  0.00000000E+00  0.00000000E+00  0.00000000E+00
  0.00000000E+00  0.00000000E+00  0.00000000E+00
  0.00000000E+00  0.00000000E+00  0.00000000E+00
  0.00000000E+00  0.00000000E+00  0.00000000E+00
  0.00000000E+00  0.00000000E+00  0.00000000E+00
  0.00000000E+00  0.00000000E+00  0.00000000E+00
  0.00000000E+00  0.00000000E+00  0.00000000E+00
  0.00000000E+00  0.00000000E+00  0.00000000E+00
  0.00000000E+00  0.00000000E+00  0.00000000E+00
  0.00000000E+00  0.00000000E+00  0.00000000E+00
  0.00000000E+00  0.00000000E+00  0.00000000E+00
  0.00000000E+00  0.00000000E+00  0.00000000E+00
  0.00000000E+00  0.00000000E+00  0.00000000E+00
  0.00000000E+00  0.00000000E+00  0.00000000E+00
  0.00000000E+00  0.00000000E+00  0.00000000E+00
  0.00000000E+00  0.00000000E+00  0.00000000E+00
  0.00000000E+00  0.00000000E+00  0.00000000E+00
  0.00000000E+00  0.00000000E+00  0.00000000E+00
  0.00000000E+00  0.00000000E+00  0.00000000E+00
  0.00000000E+00  0.00000000E+00  0.00000000E+00
  0.00000000E+00  0.00000000E+00  0.00000000E+00
  0.00000000E+00  0.00000000E+00  0.00000000E+00
  0.00000000E+00  0.00000000E+00  0.00000000E+00
  0.00000000E+00  0.00000000E+00  0.00000000E+00
  0.00000000E+00  0.00000000E+00  0.00000000E+00
  0.00000000E+00  0.00000000E+00  0.00000000E+00
  0.00000000E+00  0.00000000E+00  0.00000000E+00
  0.00000000E+00  0.00000000E+00  0.00000000E+00
  0.00000000E+00  0.00000000E+00  0.00000000E+00
  0.00000000E+00  0.00000000E+00  0.00000000E+00
  0.00000000E+00  0.00000000E+00  0.00000000E+00
  0.00000000E+00  0.00000000E+00  0.00000000E+00
  0.00000000E+00  0.00000000E+00  0.00000000E+00
  0.00000000E+00  0.00000000E+00  0.00000000E+00
  0.00000000E+00  0.00000000E+00  0.00000000E+00
  0.00000000E+00  0.00000000E+00  0.00000000E+00
  0.00000000E+00  0.00000000E+00  0.00000000E+00
  0.00000000E+00  0.00000000E+00  0.00000000E+00
  0.00000000E+00  0.00000000E+00  0.00000000E+00
  0.00000000E+00  0.00000000E+00  0.00000000E+00
  0.00000000E+00  0.00000000E+00  0.00000000E+00
  0.00000000E+00  0.00000000E+00  0.00000000E+00
  0.00000000E+00  0.00000000E+00  0.00000000E+00
  0.00000000E+00  0.00000000E+00  0.00000000E+00
  0.00000000E+00  0.00000000E+00  0.00000000E+00
  0.00000000E+00  0.00000000E+00  0.00000000E+00
  0.00000000E+00  0.00000000E+00  0.00000000E+00
  0.00000000E+00  0.00000000E+00  0.00000000E+00
  0.00000000E+00  0.00000000E+00  0.00000000E+00
  0.00000000E+00  0.00000000E+00  0.00000000E+00
  0.00000000E+00  0.00000000E+00  0.00000000E+00
  0.00000000E+00  0.00000000E+00  0.00000000E+00
  0.00000000E+00  0.00000000E+00  0.00000000E+00
  0.00000000E+00  0.00000000E+00  0.00000000E+00
  0.00000000E+00  0.00000000E+00  0.00000000E+00
  0.00000000E+00  0.00000000E+00  0.00000000E+00
  0.00000000E+00  0.00000000E+00  0.00000000E+00
  0.00000000E+00  0.00000000E+00  0.00000000E+00
  0.00000000E+00  0.00000000E+00  0.00000000E+00
  0.00000000E+00  0.00000000E+00  0.00000000E+00
  0.00000000E+00  0.00000000E+00  0.00000000E+00
  0.00000000E+00  0.00000000E+00  0.00000000E+00
  0.00000000E+00  0.00000000E+00  0.00000000E+00
  0.00000000E+00  0.00000000E+00  0.00000000E+00
  0.00000000E+00  0.00000000E+00  0.00000000E+00
  0.00000000E+00  0.00000000E+00  0.00000000E+00
