Pd N O H
1.0
 10.982000000000   0.000000000000   0.000000000000
  0.000000000000  10.982000000000   0.000000000000
  0.000000000000   0.000000000000  30.000000000000
Pd N O H
 64   1   2   3
Selective dynamics
Direct
  0.125008959171   0.125004107278   0.402916302845  F F F
  0.125011867521   0.374998098574   0.402912062745  F F F
  0.125011496370   0.625008616537   0.402909810633  F F F
  0.125008446172   0.875012330967   0.402914432014  F F F
  0.375005333503   0.125008119715   0.402920831399  F F F
  0.375004783211   0.374998010906   0.402917528143  F F F
  0.374999867840   0.625007168632   0.402912343641  F F F
  0.375001044970   0.875014998941   0.402916133970  F F F
  0.624995850956   0.125010576787   0.402920918453  F F F
  0.624994172552   0.374996856011   0.402916408716  F F F
  0.624993776275   0.625010497515   0.402907959414  F F F
  0.624995702245   0.875019379117   0.402913674918  F F F
  0.874998485254   0.125005647965   0.402915802437  F F F
  0.875001856206   0.374996404242   0.402909386665  F F F
  0.875005859930   0.625012503273   0.402904460088  F F F
  0.875001717461   0.875017592207   0.402911754075  F F F
  0.999880434140   0.999744719550   0.468046101730  F F F
  0.999484572433   0.249517532109   0.468054269496  F F F
  0.998956256149   0.500056111401   0.468210176232  F F F
  0.999782184791   0.749763463766   0.467938213168  F F F
  0.249255787362   0.999850594350   0.468068319488  F F F
  0.248765070759   0.249441692839   0.467879664602  F F F
  0.248589163423   0.500091177842   0.467975853730  F F F
  0.249152699357   0.749857777302   0.468039323299  F F F
  0.500109225448   0.999651443895   0.467917218153  F F F
  0.499769553704   0.249405494179   0.467918564451  F F F
  0.499765316822   0.500036533593   0.467920532736  F F F
  0.500098344047   0.749734631113   0.467956590020  F F F
  0.750022816257   0.999314888598   0.468116759312  F F F
  0.749742856998   0.249253518843   0.468180667418  F F F
  0.749425948682   0.499773645447   0.468139186858  F F F
  0.749939603116   0.749191566148   0.468242641362  F F F
  0.125552097905   0.126287594124   0.533923055169  F F F
  0.122724073700   0.374499742277   0.533246264596  F F F
  0.124767638025   0.622920948976   0.533828495468  F F F
  0.124438359363   0.874634176457   0.533045688972  F F F
  0.373773571095   0.123689691460   0.532683229553  F F F
  0.372841108301   0.374439046386   0.531160805502  F F F
  0.373552826806   0.625487934981   0.532592847899  F F F
  0.374734608285   0.874670041341   0.532825894035  F F F
  0.623290748945   0.124785343747   0.533473159982  F F F
  0.624845094173   0.374167262653   0.532829018560  F F F
  0.623207782477   0.622917756208   0.533796812445  F F F
  0.624706145806   0.873920200417   0.533098713576  F F F
  0.874731566735   0.124132696136   0.533108165371  F F F
  0.873519151896   0.374576353648   0.533406066226  F F F
  0.873589954273   0.623803671928   0.533448116872  F F F
  0.874621275200   0.873940571015   0.533127760832  F F F
  0.999457815721   0.999169415418   0.598257313757  F F F
  0.998104897557   0.249292232841   0.598763557150  F F F
  0.995899615517   0.499360236876   0.598778673056  F F F
  0.999430802173   0.749406570684   0.598325855429  F F F
  0.249667105600   0.999191264054   0.598398324529  F F F
  0.249625935546   0.250451165929   0.600646182138  F F F
  0.248607780714   0.498451230911   0.600398990389  F F F
  0.249406768768   0.749686302144   0.598153798297  F F F
  0.499325187457   0.998887638915   0.598328039864  F F F
  0.497242874401   0.248993285998   0.598766901757  F F F
  0.495799240553   0.499206087426   0.598500307942  F F F
  0.498844047352   0.749935805413   0.598451518585  F F F
  0.749508600952   0.998366962920   0.598361932723  F F F
  0.748625821453   0.247582579648   0.598222408741  F F F
  0.743857942055   0.496208002440   0.600956452392  F F F
  0.749377349406   0.747582425877   0.598454830456  F F F
  0.377597719672   0.373740878736   0.633059521641  T T T
  0.387831257052   0.374456010253   0.674868131567  T T T
  0.633789842948   0.395150733826   0.686837276153  T T T
  0.662408197471   0.310428190218   0.683016444048  T T T
  0.541416265818   0.390165869371   0.686106198999  T T T
  0.663221886282   0.438112539121   0.649663404229  T T T
