H N O Pd                                
   1.00000000000000     
    10.9819999999999993    0.0000000000000000    0.0000000000000000
     0.0000000000000000   10.9819999999999993    0.0000000000000000
     0.0000000000000000    0.0000000000000000   30.0000000000000000
   H    N    O    Pd
     3     1     2    64
Selective dynamics
Direct
  0.3108895198842668  0.4449667128437190  0.6574035010262257   T   T   T
  0.4330499160683226  0.4420493074131423  0.6883315367651612   T   T   T
  0.3645753155368195  0.3123981914681506  0.6762043063292748   T   T   T
  0.3749070185561437  0.1995156897096885  0.6445245148785427   T   T   T
  0.3750493250813768  0.0836570159229672  0.6523854301102885   T   T   T
  0.3514390059130238  0.4042460916397372  0.6875931829718142   T   T   T
  0.1249698931209977  0.1249712035889985  0.4027957616300029   F   F   F
  0.1249581052329987  0.3750452594720031  0.4027779283740003   F   F   F
  0.1249785188670032  0.6250806225960019  0.4028146641939969   F   F   F
  0.1249894013320016  0.8750033583869978  0.4028310625979969   F   F   F
  0.3749959919099979  0.1249678211819969  0.4027918271950028   F   F   F
  0.3749980086479994  0.3750607918279982  0.4027748669830018   F   F   F
  0.3749992076419986  0.6250910846739970  0.4028250910539981   F   F   F
  0.3749975284059985  0.8749991470759966  0.4028388527150000   F   F   F
  0.6250168689750026  0.1249702205089989  0.4027967854379995   F   F   F
  0.6250201436279994  0.3750537607010003  0.4027855683349983   F   F   F
  0.6249958060019978  0.6250776911530025  0.4028258614950033   F   F   F
  0.6249920026040030  0.8749934994330033  0.4028367176849983   F   F   F
  0.8749888973960012  0.1249757417050006  0.4028035434919985   F   F   F
  0.8749810259170019  0.3750395932179984  0.4027928100969973   F   F   F
  0.8749768271310003  0.6250676266390016  0.4028192517370002   F   F   F
  0.8749834017500007  0.8750000426629967  0.4028297778589973   F   F   F
  0.0001891913096336  0.0002061518927661  0.4678411930588540   T   T   T
  0.0003593737392074  0.2508113484844663  0.4679281348858380   T   T   T
  0.0001475949141566  0.5005282046356627  0.4678909518247130   T   T   T
  0.0001008695692202  0.7509134142321335  0.4679867860426945   T   T   T
  0.2501512397061839  0.0000378649441166  0.4680331183366829   T   T   T
  0.2503959448032142  0.2501874580235265  0.4681033451306409   T   T   T
  0.2498756979159263  0.4998915536552445  0.4680407008615753   T   T   T
  0.2498159910135104  0.7501678138301227  0.4681152668557987   T   T   T
  0.4999365920492018  0.0001468638765002  0.4679771592419354   T   T   T
  0.4997832679681692  0.2501513241279901  0.4680192451416719   T   T   T
  0.5002467682252936  0.4999363282127202  0.4679954417343545   T   T   T
  0.5001216285476968  0.7503602848256540  0.4679829019862303   T   T   T
  0.7498148571369856  0.0002785997276530  0.4678680450459116   T   T   T
  0.7497427520071007  0.2508991529512401  0.4679628815621598   T   T   T
  0.7502129727202530  0.5005705897795124  0.4678989860306920   T   T   T
  0.7498369064650410  0.7509187689587291  0.4681443477399804   T   T   T
  0.1245506617914940  0.1254958659138620  0.5326474722039698   T   T   T
  0.1264896975281158  0.3744010555484097  0.5336226435417049   T   T   T
  0.1247110526871431  0.6254104039262893  0.5328671392853915   T   T   T
  0.1267459844518655  0.8766104620467370  0.5336949579676294   T   T   T
  0.3752590789940042  0.1244197516119708  0.5329394182720643   T   T   T
  0.3753090091080432  0.3748665851378093  0.5332525671136574   T   T   T
  0.3750924054553155  0.6249165081339533  0.5328338059849017   T   T   T
  0.3751673066337322  0.8750008790437930  0.5334004449830646   T   T   T
  0.6254618838454015  0.1256847439349734  0.5327304862510482   T   T   T
  0.6240381733233709  0.3743097722055108  0.5335535091609181   T   T   T
  0.6255784862236334  0.6256025490618402  0.5327393988395628   T   T   T
  0.6234177544828494  0.8769408215571887  0.5337006243288593   T   T   T
  0.8750254204233403  0.1259566522280150  0.5325331886306949   T   T   T
  0.8753830987850196  0.3760215752336908  0.5329640082236357   T   T   T
  0.8753578686044248  0.6253495102277400  0.5329051925046855   T   T   T
  0.8751338186235427  0.8754768193483292  0.5327643041500710   T   T   T
  0.9985714158998004  0.0012569822676051  0.5979800804284087   T   T   T
  0.9994926735627366  0.2502273333465702  0.5982375948996111   T   T   T
  0.0009851162355319  0.5009989280073046  0.5984005163380841   T   T   T
  0.9997684967808377  0.7507299540227731  0.5981257476498909   T   T   T
  0.2464516828987482  0.9978986707744854  0.6000519141834084   T   T   T
  0.2469026431947405  0.2493800320387184  0.6002527739507919   T   T   T
  0.2513488496208939  0.4998515012678219  0.5990658433899820   T   T   T
  0.2501967301687962  0.7476082016977950  0.5983224679975591   T   T   T
  0.5039067064942585  0.9985706759047454  0.6001412453211696   T   T   T
  0.5032401133312678  0.2504628548409659  0.6008097270598639   T   T   T
  0.5010050608556185  0.5013970793470391  0.5978996671955392   T   T   T
  0.5001236524121870  0.7488180534080077  0.5983383199660555   T   T   T
  0.7518215317757285  0.0012595364343609  0.5980808490414071   T   T   T
  0.7505726622634429  0.2503469046910909  0.5981182918688603   T   T   T
  0.7508209361160091  0.5010322830884133  0.5983261308452498   T   T   T
  0.7503625098386671  0.7505813767693529  0.5979834295076882   T   T   T
 
  0.00000000E+00  0.00000000E+00  0.00000000E+00
  0.00000000E+00  0.00000000E+00  0.00000000E+00
  0.00000000E+00  0.00000000E+00  0.00000000E+00
  0.00000000E+00  0.00000000E+00  0.00000000E+00
  0.00000000E+00  0.00000000E+00  0.00000000E+00
  0.00000000E+00  0.00000000E+00  0.00000000E+00
  0.00000000E+00  0.00000000E+00  0.00000000E+00
  0.00000000E+00  0.00000000E+00  0.00000000E+00
  0.00000000E+00  0.00000000E+00  0.00000000E+00
  0.00000000E+00  0.00000000E+00  0.00000000E+00
  0.00000000E+00  0.00000000E+00  0.00000000E+00
  0.00000000E+00  0.00000000E+00  0.00000000E+00
  0.00000000E+00  0.00000000E+00  0.00000000E+00
  0.00000000E+00  0.00000000E+00  0.00000000E+00
  0.00000000E+00  0.00000000E+00  0.00000000E+00
  0.00000000E+00  0.00000000E+00  0.00000000E+00
  0.00000000E+00  0.00000000E+00  0.00000000E+00
  0.00000000E+00  0.00000000E+00  0.00000000E+00
  0.00000000E+00  0.00000000E+00  0.00000000E+00
  0.00000000E+00  0.00000000E+00  0.00000000E+00
  0.00000000E+00  0.00000000E+00  0.00000000E+00
  0.00000000E+00  0.00000000E+00  0.00000000E+00
  0.00000000E+00  0.00000000E+00  0.00000000E+00
  0.00000000E+00  0.00000000E+00  0.00000000E+00
  0.00000000E+00  0.00000000E+00  0.00000000E+00
  0.00000000E+00  0.00000000E+00  0.00000000E+00
  0.00000000E+00  0.00000000E+00  0.00000000E+00
  0.00000000E+00  0.00000000E+00  0.00000000E+00
  0.00000000E+00  0.00000000E+00  0.00000000E+00
  0.00000000E+00  0.00000000E+00  0.00000000E+00
  0.00000000E+00  0.00000000E+00  0.00000000E+00
  0.00000000E+00  0.00000000E+00  0.00000000E+00
  0.00000000E+00  0.00000000E+00  0.00000000E+00
  0.00000000E+00  0.00000000E+00  0.00000000E+00
  0.00000000E+00  0.00000000E+00  0.00000000E+00
  0.00000000E+00  0.00000000E+00  0.00000000E+00
  0.00000000E+00  0.00000000E+00  0.00000000E+00
  0.00000000E+00  0.00000000E+00  0.00000000E+00
  0.00000000E+00  0.00000000E+00  0.00000000E+00
  0.00000000E+00  0.00000000E+00  0.00000000E+00
  0.00000000E+00  0.00000000E+00  0.00000000E+00
  0.00000000E+00  0.00000000E+00  0.00000000E+00
  0.00000000E+00  0.00000000E+00  0.00000000E+00
  0.00000000E+00  0.00000000E+00  0.00000000E+00
  0.00000000E+00  0.00000000E+00  0.00000000E+00
  0.00000000E+00  0.00000000E+00  0.00000000E+00
  0.00000000E+00  0.00000000E+00  0.00000000E+00
  0.00000000E+00  0.00000000E+00  0.00000000E+00
  0.00000000E+00  0.00000000E+00  0.00000000E+00
  0.00000000E+00  0.00000000E+00  0.00000000E+00
  0.00000000E+00  0.00000000E+00  0.00000000E+00
  0.00000000E+00  0.00000000E+00  0.00000000E+00
  0.00000000E+00  0.00000000E+00  0.00000000E+00
  0.00000000E+00  0.00000000E+00  0.00000000E+00
  0.00000000E+00  0.00000000E+00  0.00000000E+00
  0.00000000E+00  0.00000000E+00  0.00000000E+00
  0.00000000E+00  0.00000000E+00  0.00000000E+00
  0.00000000E+00  0.00000000E+00  0.00000000E+00
  0.00000000E+00  0.00000000E+00  0.00000000E+00
  0.00000000E+00  0.00000000E+00  0.00000000E+00
  0.00000000E+00  0.00000000E+00  0.00000000E+00
  0.00000000E+00  0.00000000E+00  0.00000000E+00
  0.00000000E+00  0.00000000E+00  0.00000000E+00
  0.00000000E+00  0.00000000E+00  0.00000000E+00
  0.00000000E+00  0.00000000E+00  0.00000000E+00
  0.00000000E+00  0.00000000E+00  0.00000000E+00
  0.00000000E+00  0.00000000E+00  0.00000000E+00
  0.00000000E+00  0.00000000E+00  0.00000000E+00
  0.00000000E+00  0.00000000E+00  0.00000000E+00
  0.00000000E+00  0.00000000E+00  0.00000000E+00
