Pd N O H                                
   1.00000000000000     
    10.9819999999999993    0.0000000000000000    0.0000000000000000
     0.0000000000000000   10.9819999999999993    0.0000000000000000
     0.0000000000000000    0.0000000000000000   30.0000000000000000
   Pd   N    O    H 
    64     1     1     1
Selective dynamics
Direct
  0.1249995473439967  0.1249995473439967  0.4029322681199972   F   F   F
  0.1249995473439967  0.3749986420319971  0.4029322681199972   F   F   F
  0.1249995473439967  0.6249977367199975  0.4029322681199972   F   F   F
  0.1249995473439967  0.8749968314079979  0.4029322681199972   F   F   F
  0.3749986420319971  0.1249995473439967  0.4029322681199972   F   F   F
  0.3749986420319971  0.3749986420319971  0.4029322681199972   F   F   F
  0.3749986420319971  0.6249977367199975  0.4029322681199972   F   F   F
  0.3749986420319971  0.8749968314079979  0.4029322681199972   F   F   F
  0.6249977367199975  0.1249995473439967  0.4029322681199972   F   F   F
  0.6249977367199975  0.3749986420319971  0.4029322681199972   F   F   F
  0.6249977367199975  0.6249977367199975  0.4029322681199972   F   F   F
  0.6249977367199975  0.8749968314079979  0.4029322681199972   F   F   F
  0.8749968314079979  0.1249995473439967  0.4029322681199972   F   F   F
  0.8749968314079979  0.3749986420319971  0.4029322681199972   F   F   F
  0.8749968314079979  0.6249977367199975  0.4029322681199972   F   F   F
  0.8749968314079979  0.8749968314079979  0.4029322681199972   F   F   F
  0.0002131457187279  0.0002770551269152  0.4682583080504713   T   T   T
  0.0002355809998486  0.2496133157748780  0.4679128736985869   T   T   T
  0.0003925839149742  0.5005105129527891  0.4680734694790052   T   T   T
 -0.0000058657977735  0.7499810573792550  0.4680485155838983   T   T   T
  0.2497833108132877  0.0000369846238692  0.4681184368828952   T   T   T
  0.2500911856591110  0.2498490537163554  0.4680709054372720   T   T   T
  0.2502272145194052  0.4997867078446014  0.4681215244462361   T   T   T
  0.2496648819887925  0.7495288365061096  0.4680695826050831   T   T   T
  0.5003729931643440  0.0000804227418830  0.4681106726464246   T   T   T
  0.4999340622655309  0.2498974775362392  0.4680829872972346   T   T   T
  0.4997643226342256  0.4998434431417798  0.4681173088740355   T   T   T
  0.5004267908807126  0.7495663389151869  0.4680813410686395   T   T   T
  0.7499254330178307  0.0003067711338575  0.4682557002993358   T   T   T
  0.7498147302855906  0.2496824657552046  0.4679014515152656   T   T   T
  0.7496146137261840  0.5005522888175844  0.4680680937479378   T   T   T
  0.7500898251674971  0.7500010411168970  0.4680497311395002   T   T   T
  0.1265864654295627  0.1263602215259049  0.5338444894242633   T   T   T
  0.1240018908488379  0.3749115138934486  0.5326923032588270   T   T   T
  0.1265433470070357  0.6232657563963601  0.5338838701005642   T   T   T
  0.1248993684294617  0.8746242568126604  0.5329197598035321   T   T   T
  0.3750893419359774  0.1247076241676374  0.5332915627726333   T   T   T
  0.3750044391760907  0.3742834712026298  0.5328538005601365   T   T   T
  0.3750574061262022  0.6247514167936047  0.5331745690488970   T   T   T
  0.3751430371429593  0.8745797063667443  0.5325950382796332   T   T   T
  0.6235990871002741  0.1264616987897806  0.5338213441595573   T   T   T
  0.6259441462519737  0.3750469975061434  0.5326939760546366   T   T   T
  0.6234665148623852  0.6233625171016005  0.5339095353698998   T   T   T
  0.6253466080230458  0.8747592790689150  0.5329294558643823   T   T   T
  0.8751106526822960  0.1249867378887169  0.5328468643162624   T   T   T
  0.8749708754368652  0.3751159056803114  0.5325395766458373   T   T   T
  0.8750471737194147  0.6250444510569138  0.5329822453388664   T   T   T
  0.8751466032627111  0.8748178350931836  0.5329011659850872   T   T   T
  0.9997836573116572  0.9995898702762629  0.5981621015843873   T   T   T
  0.9980035063633831  0.2502790606812939  0.5982268894461061   T   T   T
  0.9988692308065189  0.4993374974427394  0.5983269238332789   T   T   T
  0.9995347912489102  0.7502338541510715  0.5982698611168288   T   T   T
  0.2505091056411347  0.9980845901248915  0.5981287458271783   T   T   T
  0.2445955803899785  0.2473366104652836  0.5999010021356452   T   T   T
  0.2456799145408436  0.5013923520854544  0.6003831377765644   T   T   T
  0.2503207817626468  0.7507155294644849  0.5982091039221322   T   T   T
  0.4999405432365397  0.9982837861581280  0.5981392760724934   T   T   T
  0.5054119429274316  0.2475763865365788  0.5999175905479757   T   T   T
  0.5041950019667130  0.5015276491600711  0.6004620556481430   T   T   T
  0.4998406105897060  0.7509180095495296  0.5982446447262113   T   T   T
  0.7506637945152566  0.9997013312424978  0.5981481388038883   T   T   T
  0.7520041556007693  0.2503884518029220  0.5982124910266396   T   T   T
  0.7510584446167731  0.4994321334007841  0.5983223572633840   T   T   T
  0.7506305804234941  0.7503487034592716  0.5982222586853423   T   T   T
  0.3748032860377992  0.4402214862652377  0.6438748013238750   T   T   T
  0.3748648821569892  0.3161198914922699  0.6487095199335683   T   T   T
  0.3745791153430039  0.4770393329780878  0.6755380174619360   T   T   T
 
  0.00000000E+00  0.00000000E+00  0.00000000E+00
  0.00000000E+00  0.00000000E+00  0.00000000E+00
  0.00000000E+00  0.00000000E+00  0.00000000E+00
  0.00000000E+00  0.00000000E+00  0.00000000E+00
  0.00000000E+00  0.00000000E+00  0.00000000E+00
  0.00000000E+00  0.00000000E+00  0.00000000E+00
  0.00000000E+00  0.00000000E+00  0.00000000E+00
  0.00000000E+00  0.00000000E+00  0.00000000E+00
  0.00000000E+00  0.00000000E+00  0.00000000E+00
  0.00000000E+00  0.00000000E+00  0.00000000E+00
  0.00000000E+00  0.00000000E+00  0.00000000E+00
  0.00000000E+00  0.00000000E+00  0.00000000E+00
  0.00000000E+00  0.00000000E+00  0.00000000E+00
  0.00000000E+00  0.00000000E+00  0.00000000E+00
  0.00000000E+00  0.00000000E+00  0.00000000E+00
  0.00000000E+00  0.00000000E+00  0.00000000E+00
  0.00000000E+00  0.00000000E+00  0.00000000E+00
  0.00000000E+00  0.00000000E+00  0.00000000E+00
  0.00000000E+00  0.00000000E+00  0.00000000E+00
  0.00000000E+00  0.00000000E+00  0.00000000E+00
  0.00000000E+00  0.00000000E+00  0.00000000E+00
  0.00000000E+00  0.00000000E+00  0.00000000E+00
  0.00000000E+00  0.00000000E+00  0.00000000E+00
  0.00000000E+00  0.00000000E+00  0.00000000E+00
  0.00000000E+00  0.00000000E+00  0.00000000E+00
  0.00000000E+00  0.00000000E+00  0.00000000E+00
  0.00000000E+00  0.00000000E+00  0.00000000E+00
  0.00000000E+00  0.00000000E+00  0.00000000E+00
  0.00000000E+00  0.00000000E+00  0.00000000E+00
  0.00000000E+00  0.00000000E+00  0.00000000E+00
  0.00000000E+00  0.00000000E+00  0.00000000E+00
  0.00000000E+00  0.00000000E+00  0.00000000E+00
  0.00000000E+00  0.00000000E+00  0.00000000E+00
  0.00000000E+00  0.00000000E+00  0.00000000E+00
  0.00000000E+00  0.00000000E+00  0.00000000E+00
  0.00000000E+00  0.00000000E+00  0.00000000E+00
  0.00000000E+00  0.00000000E+00  0.00000000E+00
  0.00000000E+00  0.00000000E+00  0.00000000E+00
  0.00000000E+00  0.00000000E+00  0.00000000E+00
  0.00000000E+00  0.00000000E+00  0.00000000E+00
  0.00000000E+00  0.00000000E+00  0.00000000E+00
  0.00000000E+00  0.00000000E+00  0.00000000E+00
  0.00000000E+00  0.00000000E+00  0.00000000E+00
  0.00000000E+00  0.00000000E+00  0.00000000E+00
  0.00000000E+00  0.00000000E+00  0.00000000E+00
  0.00000000E+00  0.00000000E+00  0.00000000E+00
  0.00000000E+00  0.00000000E+00  0.00000000E+00
  0.00000000E+00  0.00000000E+00  0.00000000E+00
  0.00000000E+00  0.00000000E+00  0.00000000E+00
  0.00000000E+00  0.00000000E+00  0.00000000E+00
  0.00000000E+00  0.00000000E+00  0.00000000E+00
  0.00000000E+00  0.00000000E+00  0.00000000E+00
  0.00000000E+00  0.00000000E+00  0.00000000E+00
  0.00000000E+00  0.00000000E+00  0.00000000E+00
  0.00000000E+00  0.00000000E+00  0.00000000E+00
  0.00000000E+00  0.00000000E+00  0.00000000E+00
  0.00000000E+00  0.00000000E+00  0.00000000E+00
  0.00000000E+00  0.00000000E+00  0.00000000E+00
  0.00000000E+00  0.00000000E+00  0.00000000E+00
  0.00000000E+00  0.00000000E+00  0.00000000E+00
  0.00000000E+00  0.00000000E+00  0.00000000E+00
  0.00000000E+00  0.00000000E+00  0.00000000E+00
  0.00000000E+00  0.00000000E+00  0.00000000E+00
  0.00000000E+00  0.00000000E+00  0.00000000E+00
  0.00000000E+00  0.00000000E+00  0.00000000E+00
  0.00000000E+00  0.00000000E+00  0.00000000E+00
  0.00000000E+00  0.00000000E+00  0.00000000E+00
