Pd N O H                                
   1.00000000000000     
    10.9819999999999993    0.0000000000000000    0.0000000000000000
     0.0000000000000000   10.9819999999999993    0.0000000000000000
     0.0000000000000000    0.0000000000000000   30.0000000000000000
   Pd   N    O    H 
    64     1     1     1
Selective dynamics
Direct
  0.1249937226697710  0.1249468995349545  0.4028584852125334   F   F   F
  0.1249902810634609  0.3749677295130311  0.4028421281829040   F   F   F
  0.1250020053927869  0.6250065942528948  0.4028542375578468   F   F   F
  0.1250083324800713  0.8749855897101781  0.4028710784613452   F   F   F
  0.3749986395955176  0.1249407306984338  0.4028594192000128   F   F   F
  0.3749986626764112  0.3749703030109472  0.4028434862446204   F   F   F
  0.3749986477021068  0.6250046368573763  0.4028684151383644   F   F   F
  0.3749986443043838  0.8749744730536335  0.4028788848064124   F   F   F
  0.6250031985008846  0.1249468571031684  0.4028586561962015   F   F   F
  0.6250065302122110  0.3749677819505095  0.4028423737735025   F   F   F
  0.6249947186959872  0.6250064800753492  0.4028545382178237   F   F   F
  0.6249884959449972  0.8749853687619407  0.4028712998963897   F   F   F
  0.8749964231827221  0.1249540798867557  0.4028578824435343   F   F   F
  0.8749963554565880  0.3749645680950451  0.4028420322643171   F   F   F
  0.8749962966444187  0.6250055320076271  0.4028466946871490   F   F   F
  0.8749963846554039  0.8750001324580410  0.4028634295072919   F   F   F
  0.9999136455610014  0.9995831039959526  0.4678402460548554   T   T   T
  0.0000164767813615  0.2498451927491132  0.4678022429472719   T   T   T
  0.0005367704638957  0.4994350070500602  0.4682369495213692   T   T   T
  0.0001679971047821  0.7491993333514344  0.4679273259499723   T   T   T
  0.2501041856651582  0.9992922508149462  0.4679159701928413   T   T   T
  0.2497089923154974  0.2497605162312979  0.4680272011155608   T   T   T
  0.2502512711177971  0.4995930009228147  0.4682174927696607   T   T   T
  0.2500631697715434  0.7488908962846068  0.4682098552611862   T   T   T
  0.4998764161353222  0.9993545697382658  0.4678684314079931   T   T   T
  0.5002948396890190  0.2497666038048223  0.4679715347525502   T   T   T
  0.4997608178293973  0.4995637276553921  0.4682590193548677   T   T   T
  0.4998873244297926  0.7488079988290792  0.4681385344365765   T   T   T
  0.7501004558254749  0.9994817968938605  0.4678596668636530   T   T   T
  0.7500744063839520  0.2498427958123273  0.4677936871037716   T   T   T
  0.7496401060818698  0.4994408640223256  0.4682381622155489   T   T   T
  0.7497679124609249  0.7492062870799288  0.4679341637755954   T   T   T
  0.1247271981207518  0.1242638595745902  0.5327355435800385   T   T   T
  0.1260268015781563  0.3747797667007546  0.5336412447346746   T   T   T
  0.1253014458136832  0.6238208560885923  0.5333904696670473   T   T   T
  0.1251279421193701  0.8739350180041328  0.5327211405293895   T   T   T
  0.3749941093562796  0.1234761801164055  0.5325925332049124   T   T   T
  0.3751023744799156  0.3731093068844373  0.5331529843999476   T   T   T
  0.3749931089771366  0.6231241465509427  0.5335743247421973   T   T   T
  0.3750564537333219  0.8736631456144721  0.5329267558250592   T   T   T
  0.6253397287633931  0.1242180457365123  0.5326640271904211   T   T   T
  0.6240952303688303  0.3747139628207989  0.5335728709807483   T   T   T
  0.6246948331513664  0.6238152419404912  0.5333566334147974   T   T   T
  0.6248070008974622  0.8739417652649095  0.5327311053322177   T   T   T
  0.8749765212336271  0.1244159846567570  0.5327602567384844   T   T   T
  0.8751015311856847  0.3740272867295076  0.5329410169550286   T   T   T
  0.8749687055842941  0.6242013878001558  0.5328679323097418   T   T   T
  0.8749083670090343  0.8742502515647601  0.5326894620024518   T   T   T
  0.9998263930823299  0.9987197889371870  0.5979250127274511   T   T   T
  0.9996048235073403  0.2482978485100489  0.5982260220579860   T   T   T
  0.9992566990089387  0.4990949078233271  0.5984016314257516   T   T   T
  0.9992118582375724  0.7491298801767101  0.5981607509182609   T   T   T
  0.2498679368327927  0.9985406906021339  0.5980792448898029   T   T   T
  0.2499227356158755  0.2455593828625098  0.5981294761788405   T   T   T
  0.2471564721872141  0.4947131411696120  0.6010635550042593   T   T   T
  0.2488586042399490  0.7511385738848233  0.5990956272585848   T   T   T
  0.5000278951770127  0.9986882548910785  0.5980221369618590   T   T   T
  0.5001534451388494  0.2456269585501403  0.5981679350538087   T   T   T
  0.5027667412586894  0.4945227504826164  0.6010569943101274   T   T   T
  0.5010613570317020  0.7511429504484397  0.5992366554838426   T   T   T
  0.7500069787791404  0.9986843554138787  0.5979136446271340   T   T   T
  0.7502878994411546  0.2484474393153562  0.5980958936213057   T   T   T
  0.7507704299386617  0.4990090184197271  0.5983662584484790   T   T   T
  0.7506195681697960  0.7491710419904010  0.5980571261667365   T   T   T
  0.3749641421974417  0.5535364791849133  0.6454420002359527   T   T   T
  0.3749341655553877  0.5273078626985921  0.6851349416574735   T   T   T
  0.3757474353861383  0.6674865202597360  0.6341610150249721   T   T   T
 
             NaN             NaN             NaN
             NaN             NaN             NaN
             NaN             NaN             NaN
             NaN             NaN             NaN
             NaN             NaN             NaN
             NaN             NaN             NaN
             NaN             NaN             NaN
             NaN             NaN             NaN
             NaN             NaN             NaN
             NaN             NaN             NaN
             NaN             NaN             NaN
             NaN             NaN             NaN
             NaN             NaN             NaN
             NaN             NaN             NaN
             NaN             NaN             NaN
             NaN             NaN             NaN
             NaN             NaN             NaN
             NaN             NaN             NaN
             NaN             NaN             NaN
             NaN             NaN             NaN
             NaN             NaN             NaN
             NaN             NaN             NaN
             NaN             NaN             NaN
             NaN             NaN             NaN
             NaN             NaN             NaN
             NaN             NaN             NaN
             NaN             NaN             NaN
             NaN             NaN             NaN
             NaN             NaN             NaN
             NaN             NaN             NaN
             NaN             NaN             NaN
             NaN             NaN             NaN
             NaN             NaN             NaN
             NaN             NaN             NaN
             NaN             NaN             NaN
             NaN             NaN             NaN
             NaN             NaN             NaN
             NaN             NaN             NaN
             NaN             NaN             NaN
             NaN             NaN             NaN
             NaN             NaN             NaN
             NaN             NaN             NaN
             NaN             NaN             NaN
             NaN             NaN             NaN
             NaN             NaN             NaN
             NaN             NaN             NaN
             NaN             NaN             NaN
             NaN             NaN             NaN
             NaN             NaN             NaN
             NaN             NaN             NaN
             NaN             NaN             NaN
             NaN             NaN             NaN
             NaN             NaN             NaN
             NaN             NaN             NaN
             NaN             NaN             NaN
             NaN             NaN             NaN
             NaN             NaN             NaN
             NaN             NaN             NaN
             NaN             NaN             NaN
             NaN             NaN             NaN
             NaN             NaN             NaN
             NaN             NaN             NaN
             NaN             NaN             NaN
             NaN             NaN             NaN
             NaN             NaN             NaN
             NaN             NaN             NaN
             NaN             NaN             NaN
