SYSTEM = Pd_111_surface

#startup options
#ISTART   = 0        ! job: 0-new, 1-cont, 2-samecut
#ICHARG   = 2        ! charge: 1-file, 2-atom, 3-const
#INIWAV   = 1        ! wfn: 0-lowe, 1-rand

#electronic relaxation
NELM     = 100      ! Maximum number of SCF iterations
ALGO     = fast     ! SCF algorithm, normal or fast
ISPIN    = 2        ! spin polarization: 1-no spin polarization, 2-spin polarization
EDIFF    = 1E-05    ! energy difference cutoff
ISMEAR   = 1        ! smearing method: 0-gaussian, -5->tetrahedral method, 2-MP method (2nd order)
SIGMA    = 0.2      ! smearing width, default = 0.2
PREC     = accurate
ENCUT    = 400      ! Kinetic Energy cut-off (determined by convergence study), 130% if relaxation test
LREAL    = auto     ! Real space projection

#output options
LWAVE    = .FALSE.   ! Write the wavecar file?
LCHARG   = .FALSE.   ! Write the chgcar file?
LAECHG   = .FALSE.   ! Write atomic core charge file?
LVHAR    = .FALSE.   ! Write Hartree potential

#dos options
NEDOS    = 1200
LORBIT   = 11
NCORE    = 8 
KPAR     = 1

#ionic relaxation options
EDIFFG    = -0.05    ! if negative, relax until forces are below this value (in eV/A)
IBRION    = 3        ! -1 freeze; 0 AIMD, 1 quasi-Newton, 2 CG method, 3 damp MD, 5 vibrational frequencies
NSW       = 500      ! Number of relaxation steps
ISIF      = 2        ! if relaxation, allows the all to relax
POTIM     = 0.0      ! default is 0.5, scaling factor for forces, 0.02 for vibrational frequency

#Van der waals correction
IVDW = 11            ! zero damping DFT-D3 method of Grimme

#Parallelization
LPLANE = .TRUE.

#Dipole
IDIPOL = 3
LDIPOL = .TRUE. 
DIPOL = 0.5 0.5 0.5 
#Magnetization
!  NUPDOWN  =        ! unpaired electron numbers

#Dimer Settings
IOPT   = 2
ICHAIN = 2
DdR       = 5E-3
DRotMax   = 4
DFNMax    = 1.0
DFNMin    = 0.01








