Pd N O                                  
   1.00000000000000     
    10.9819999999999993    0.0000000000000000    0.0000000000000000
     0.0000000000000000   10.9819999999999993    0.0000000000000000
     0.0000000000000000    0.0000000000000000   30.0000000000000000
   Pd   N    O 
    64     1     1
Selective dynamics
Direct
  0.1249314754929998  0.1249955531859968  0.4028543711970016   F   F   F
  0.1249277868329983  0.3749986972639974  0.4028553271430013   F   F   F
  0.1249317714829985  0.6250016654189992  0.4028544546600017   F   F   F
  0.1249349470460004  0.8749966672420015  0.4028525933759965   F   F   F
  0.3749384289340014  0.1249791333340013  0.4028164378890011   F   F   F
  0.3749354553100019  0.3749987298970012  0.4028158360380019   F   F   F
  0.3749385882289999  0.6250180149990001  0.4028166372940021   F   F   F
  0.3749441039670032  0.8749965637040020  0.4028223885749966   F   F   F
  0.6250176485240004  0.1249844632160020  0.4028241278750002   F   F   F
  0.6250158988249979  0.3749987062589994  0.4028257486289988   F   F   F
  0.6250176044679989  0.6250128202829970  0.4028241984780010   F   F   F
  0.6250192956079985  0.8749967237720000  0.4028265176520023   F   F   F
  0.8750089451970027  0.1249995894470004  0.4028594206709997   F   F   F
  0.8750030895729992  0.3749986553039975  0.4028629449249976   F   F   F
  0.8750090710040013  0.6249977873929993  0.4028593862730006   F   F   F
  0.8750146841460023  0.8749969160080013  0.4028569500669974   F   F   F
 -0.0000022953694194  0.9998493704545898  0.4679017029798647   T   T   T
  0.0000752039635562  0.2498752379909178  0.4677856276387200   T   T   T
  0.0000763844093032  0.5000296484596815  0.4677843813254481   T   T   T
 -0.0000027068645797  0.7500647562514903  0.4679006791117176   T   T   T
  0.2504858855845548  0.9999059499075014  0.4678125801586549   T   T   T
  0.2508676534430097  0.2496929080013822  0.4679529961599170   T   T   T
  0.2508640439175408  0.5001914142474717  0.4679515260217300   T   T   T
  0.2504866309458865  0.7499753998487180  0.4678143202422334   T   T   T
  0.4999595124396521  0.0005883016718833  0.4682872930514024   T   T   T
  0.5000166442804599  0.2503788706020602  0.4683154689133388   T   T   T
  0.5000192202410457  0.4994649234387047  0.4683116402264819   T   T   T
  0.4999575752092152  0.7492460090135172  0.4682872205770502   T   T   T
  0.7494865774701840  0.9998797733176937  0.4678169941450951   T   T   T
  0.7492233918383722  0.2497054743859312  0.4679503828641241   T   T   T
  0.7492220725891546  0.5001798886685213  0.4679491392489623   T   T   T
  0.7494781684426363  0.7500013663238030  0.4678192505532637   T   T   T
  0.1255864266278523  0.1246518260815478  0.5324803797427184   T   T   T
  0.1251714840288380  0.3749176399820146  0.5323584363637314   T   T   T
  0.1255971764342844  0.6251734535465572  0.5324852944136923   T   T   T
  0.1252375412136228  0.8749117032924484  0.5326068795947583   T   T   T
  0.3763721409953753  0.1257774173831800  0.5338745946919394   T   T   T
  0.3755834938221901  0.3748654221934061  0.5336355852701509   T   T   T
  0.3763565376130965  0.6239446761272309  0.5338871831346153   T   T   T
  0.3750044072921092  0.8748534649230718  0.5329252666004278   T   T   T
  0.6237426923640189  0.1257336382460635  0.5338505242260729   T   T   T
  0.6246971234087217  0.3748718491155800  0.5336104732579318   T   T   T
  0.6237362598419521  0.6239964663615774  0.5338555958817004   T   T   T
  0.6249565163260008  0.8748589354068518  0.5329271760628659   T   T   T
  0.8745897396800281  0.1246241554546128  0.5324744180084899   T   T   T
  0.8751945035439911  0.3749112635694269  0.5323342254736438   T   T   T
  0.8745758462725800  0.6252061349135427  0.5324723335601899   T   T   T
  0.8747459990965748  0.8749150224808520  0.5326135310627329   T   T   T
  0.0000158673981122 -0.0000606964330307  0.5976290864964727   T   T   T
  0.0002177415556312  0.2498773154036962  0.5975889031676672   T   T   T
  0.0002193380763743  0.4999157703872143  0.5975850796139200   T   T   T
  0.9999923638602950  0.7498501897449796  0.5976244131927174   T   T   T
  0.2493342194579083  0.9993314021360916  0.5981431951140922   T   T   T
  0.2471311991983718  0.2496586828972295  0.5978534375445407   T   T   T
  0.2471451203328165  0.5001023592543659  0.5978648659695061   T   T   T
  0.2493158821660025  0.7504180598333193  0.5981484428568308   T   T   T
  0.5000090368561040  0.9982331262467268  0.5985664208482178   T   T   T
  0.5003652014739861  0.2450115137860470  0.6021892548458636   T   T   T
  0.5003859803757933  0.5045306610348361  0.6022377046200180   T   T   T
  0.4999920094651458  0.7513754918645302  0.5985705185844036   T   T   T
  0.7506931432982933  0.9993192034259237  0.5981428633563933   T   T   T
  0.7534643172202189  0.2495776741632494  0.5977805600248715   T   T   T
  0.7534677402774226  0.5001858524968539  0.5977788535799647   T   T   T
  0.7506678846027294  0.7504307955638103  0.5981386986223608   T   T   T
  0.5035972801472357  0.3746978199179449  0.6465732712972392   T   T   T
  0.5100281218139102  0.3745725967847483  0.6863536485298377   T   T   T
 
  0.00000000E+00  0.00000000E+00  0.00000000E+00
  0.00000000E+00  0.00000000E+00  0.00000000E+00
  0.00000000E+00  0.00000000E+00  0.00000000E+00
  0.00000000E+00  0.00000000E+00  0.00000000E+00
  0.00000000E+00  0.00000000E+00  0.00000000E+00
  0.00000000E+00  0.00000000E+00  0.00000000E+00
  0.00000000E+00  0.00000000E+00  0.00000000E+00
  0.00000000E+00  0.00000000E+00  0.00000000E+00
  0.00000000E+00  0.00000000E+00  0.00000000E+00
  0.00000000E+00  0.00000000E+00  0.00000000E+00
  0.00000000E+00  0.00000000E+00  0.00000000E+00
  0.00000000E+00  0.00000000E+00  0.00000000E+00
  0.00000000E+00  0.00000000E+00  0.00000000E+00
  0.00000000E+00  0.00000000E+00  0.00000000E+00
  0.00000000E+00  0.00000000E+00  0.00000000E+00
  0.00000000E+00  0.00000000E+00  0.00000000E+00
  0.00000000E+00  0.00000000E+00  0.00000000E+00
  0.00000000E+00  0.00000000E+00  0.00000000E+00
  0.00000000E+00  0.00000000E+00  0.00000000E+00
  0.00000000E+00  0.00000000E+00  0.00000000E+00
  0.00000000E+00  0.00000000E+00  0.00000000E+00
  0.00000000E+00  0.00000000E+00  0.00000000E+00
  0.00000000E+00  0.00000000E+00  0.00000000E+00
  0.00000000E+00  0.00000000E+00  0.00000000E+00
  0.00000000E+00  0.00000000E+00  0.00000000E+00
  0.00000000E+00  0.00000000E+00  0.00000000E+00
  0.00000000E+00  0.00000000E+00  0.00000000E+00
  0.00000000E+00  0.00000000E+00  0.00000000E+00
  0.00000000E+00  0.00000000E+00  0.00000000E+00
  0.00000000E+00  0.00000000E+00  0.00000000E+00
  0.00000000E+00  0.00000000E+00  0.00000000E+00
  0.00000000E+00  0.00000000E+00  0.00000000E+00
  0.00000000E+00  0.00000000E+00  0.00000000E+00
  0.00000000E+00  0.00000000E+00  0.00000000E+00
  0.00000000E+00  0.00000000E+00  0.00000000E+00
  0.00000000E+00  0.00000000E+00  0.00000000E+00
  0.00000000E+00  0.00000000E+00  0.00000000E+00
  0.00000000E+00  0.00000000E+00  0.00000000E+00
  0.00000000E+00  0.00000000E+00  0.00000000E+00
  0.00000000E+00  0.00000000E+00  0.00000000E+00
  0.00000000E+00  0.00000000E+00  0.00000000E+00
  0.00000000E+00  0.00000000E+00  0.00000000E+00
  0.00000000E+00  0.00000000E+00  0.00000000E+00
  0.00000000E+00  0.00000000E+00  0.00000000E+00
  0.00000000E+00  0.00000000E+00  0.00000000E+00
  0.00000000E+00  0.00000000E+00  0.00000000E+00
  0.00000000E+00  0.00000000E+00  0.00000000E+00
  0.00000000E+00  0.00000000E+00  0.00000000E+00
  0.00000000E+00  0.00000000E+00  0.00000000E+00
  0.00000000E+00  0.00000000E+00  0.00000000E+00
  0.00000000E+00  0.00000000E+00  0.00000000E+00
  0.00000000E+00  0.00000000E+00  0.00000000E+00
  0.00000000E+00  0.00000000E+00  0.00000000E+00
  0.00000000E+00  0.00000000E+00  0.00000000E+00
  0.00000000E+00  0.00000000E+00  0.00000000E+00
  0.00000000E+00  0.00000000E+00  0.00000000E+00
  0.00000000E+00  0.00000000E+00  0.00000000E+00
  0.00000000E+00  0.00000000E+00  0.00000000E+00
  0.00000000E+00  0.00000000E+00  0.00000000E+00
  0.00000000E+00  0.00000000E+00  0.00000000E+00
  0.00000000E+00  0.00000000E+00  0.00000000E+00
  0.00000000E+00  0.00000000E+00  0.00000000E+00
  0.00000000E+00  0.00000000E+00  0.00000000E+00
  0.00000000E+00  0.00000000E+00  0.00000000E+00
  0.00000000E+00  0.00000000E+00  0.00000000E+00
  0.00000000E+00  0.00000000E+00  0.00000000E+00
