Pd N O                                  
   1.00000000000000     
    10.9819999999999993    0.0000000000000000    0.0000000000000000
     0.0000000000000000   10.9819999999999993    0.0000000000000000
     0.0000000000000000    0.0000000000000000   30.0000000000000000
   Pd   N    O 
    64     1     1
Selective dynamics
Direct
  0.1249712392850029  0.1249969392209991  0.4028970465519990   F   F   F
  0.1249695991050004  0.3749986643840018  0.4028971330900006   F   F   F
  0.1249714292110014  0.6250003460170035  0.4028970601610027   F   F   F
  0.1249728954160005  0.8749967847600004  0.4028967210349990   F   F   F
  0.3749734685469974  0.1249885935639981  0.4028790625269991   F   F   F
  0.3749720280779982  0.3749986913529995  0.4028775126470023   F   F   F
  0.3749735231279985  0.6250085915109977  0.4028791599100003   F   F   F
  0.3749760242129980  0.8749966854839997  0.4028828102930007   F   F   F
  0.6250102487289979  0.1249908233059998  0.4028822324349974   F   F   F
  0.6250106392719985  0.3749986696070025  0.4028816950170011   F   F   F
  0.6250102198340031  0.6250064644040023  0.4028822179540015   F   F   F
  0.6250097394670036  0.8749967670529983  0.4028845443069997   F   F   F
  0.8750054536279990  0.1249985483409972  0.4028991402569986   F   F   F
  0.8750037989649968  0.3749986619870000  0.4029002455529991   F   F   F
  0.8750055270960004  0.6249987248929969  0.4028991195559968   F   F   F
  0.8750069210690015  0.8749968274030024  0.4028985079449967   F   F   F
  0.0000120661611689  0.0000226138205548  0.4680287052854126   T   T   T
  0.9999755513273101  0.2498960125125009  0.4679669886138740   T   T   T
  0.9999462910585422  0.5000669337027759  0.4679222720339240   T   T   T
  0.9999994860481678  0.7499492974082571  0.4680388209248392   T   T   T
  0.2500310372770258  0.0000005965615131  0.4679030177796122   T   T   T
  0.2502088491610692  0.2498133117495200  0.4680443717056733   T   T   T
  0.2501636235261699  0.5000549615708607  0.4679866374109594   T   T   T
  0.2500730753206710  0.7499598021840441  0.4678888093738465   T   T   T
  0.5003372585264216  0.0003640635527660  0.4681648542232040   T   T   T
  0.5000331574043742  0.2501346295946618  0.4682094946693027   T   T   T
  0.5000283665894898  0.4998123500047598  0.4681648773877782   T   T   T
  0.5003239508197481  0.7496333096972450  0.4681898815743111   T   T   T
  0.7498644878188472  0.9999839582235950  0.4679630939776374   T   T   T
  0.7495664086235436  0.2496861062652940  0.4680639548301926   T   T   T
  0.7495981243298147  0.5003180343251756  0.4680252934046436   T   T   T
  0.7497984787808889  0.7500532332740022  0.4680086569816027   T   T   T
  0.1256325805855596  0.1254658122725516  0.5330850625285493   T   T   T
  0.1248907347389050  0.3749997473338240  0.5327626638535889   T   T   T
  0.1256433321911885  0.6244431044824665  0.5330358680999296   T   T   T
  0.1250347231919022  0.8750145206445694  0.5328018327060420   T   T   T
  0.3753524802178987  0.1246889294727467  0.5331365670928534   T   T   T
  0.3755722283179779  0.3749670586268650  0.5328353825790018   T   T   T
  0.3753694690787981  0.6251276564475319  0.5331008969712911   T   T   T
  0.3750440902166616  0.8750044956729965  0.5328344807731114   T   T   T
  0.6238657344596632  0.1262351490964164  0.5338741323136134   T   T   T
  0.6256648588302554  0.3750698650353925  0.5331186370047902   T   T   T
  0.6238350227927540  0.6236993091689769  0.5338532979893884   T   T   T
  0.6250937792426683  0.8750795186780493  0.5330566010557973   T   T   T
  0.8747833222074277  0.1248518653744455  0.5328760381581148   T   T   T
  0.8751276809341704  0.3750140866662264  0.5327588096226563   T   T   T
  0.8748468964583580  0.6250549006431285  0.5328578965300181   T   T   T
  0.8749403916598837  0.8750598795310509  0.5329184607314446   T   T   T
  0.0002848713841175  0.0000296474662989  0.5979647243161068   T   T   T
  0.0002579966985223  0.2500870734490377  0.5981177782753804   T   T   T
  0.0004817823773564  0.4999241361654612  0.5981218860775570   T   T   T
  0.0001995748334522  0.7499415347572622  0.5979747123230581   T   T   T
  0.2500085389931854  0.9995357759186305  0.5981846715047752   T   T   T
  0.2489696300873518  0.2501281190072575  0.5985789390932794   T   T   T
  0.2489927734030388  0.4999190305858647  0.5985819369609544   T   T   T
  0.2499840591470601  0.7504066179641882  0.5980453604194764   T   T   T
  0.4998365598733017  0.9992025960940865  0.5984045968659828   T   T   T
  0.5006297824771195  0.2481881971468667  0.6010375615669474   T   T   T
  0.5005351898303090  0.5015086354406932  0.6010340053222762   T   T   T
  0.4997889967808078  0.7506571819032928  0.5983902194298523   T   T   T
  0.7504835790023208  0.9997614656731173  0.5982958996338610   T   T   T
  0.7518963279345954  0.2500136557593464  0.5982229740152292   T   T   T
  0.7520588321876716  0.5000205347182245  0.5982779192179635   T   T   T
  0.7503714433247666  0.7502573477249399  0.5981148993807892   T   T   T
  0.4260645284460693  0.3746777748488910  0.6413496827237353   T   T   T
  0.4319327874730448  0.3744425956084285  0.6814967233233986   T   T   T
 
  0.00000000E+00  0.00000000E+00  0.00000000E+00
  0.00000000E+00  0.00000000E+00  0.00000000E+00
  0.00000000E+00  0.00000000E+00  0.00000000E+00
  0.00000000E+00  0.00000000E+00  0.00000000E+00
  0.00000000E+00  0.00000000E+00  0.00000000E+00
  0.00000000E+00  0.00000000E+00  0.00000000E+00
  0.00000000E+00  0.00000000E+00  0.00000000E+00
  0.00000000E+00  0.00000000E+00  0.00000000E+00
  0.00000000E+00  0.00000000E+00  0.00000000E+00
  0.00000000E+00  0.00000000E+00  0.00000000E+00
  0.00000000E+00  0.00000000E+00  0.00000000E+00
  0.00000000E+00  0.00000000E+00  0.00000000E+00
  0.00000000E+00  0.00000000E+00  0.00000000E+00
  0.00000000E+00  0.00000000E+00  0.00000000E+00
  0.00000000E+00  0.00000000E+00  0.00000000E+00
  0.00000000E+00  0.00000000E+00  0.00000000E+00
  0.00000000E+00  0.00000000E+00  0.00000000E+00
  0.00000000E+00  0.00000000E+00  0.00000000E+00
  0.00000000E+00  0.00000000E+00  0.00000000E+00
  0.00000000E+00  0.00000000E+00  0.00000000E+00
  0.00000000E+00  0.00000000E+00  0.00000000E+00
  0.00000000E+00  0.00000000E+00  0.00000000E+00
  0.00000000E+00  0.00000000E+00  0.00000000E+00
  0.00000000E+00  0.00000000E+00  0.00000000E+00
  0.00000000E+00  0.00000000E+00  0.00000000E+00
  0.00000000E+00  0.00000000E+00  0.00000000E+00
  0.00000000E+00  0.00000000E+00  0.00000000E+00
  0.00000000E+00  0.00000000E+00  0.00000000E+00
  0.00000000E+00  0.00000000E+00  0.00000000E+00
  0.00000000E+00  0.00000000E+00  0.00000000E+00
  0.00000000E+00  0.00000000E+00  0.00000000E+00
  0.00000000E+00  0.00000000E+00  0.00000000E+00
  0.00000000E+00  0.00000000E+00  0.00000000E+00
  0.00000000E+00  0.00000000E+00  0.00000000E+00
  0.00000000E+00  0.00000000E+00  0.00000000E+00
  0.00000000E+00  0.00000000E+00  0.00000000E+00
  0.00000000E+00  0.00000000E+00  0.00000000E+00
  0.00000000E+00  0.00000000E+00  0.00000000E+00
  0.00000000E+00  0.00000000E+00  0.00000000E+00
  0.00000000E+00  0.00000000E+00  0.00000000E+00
  0.00000000E+00  0.00000000E+00  0.00000000E+00
  0.00000000E+00  0.00000000E+00  0.00000000E+00
  0.00000000E+00  0.00000000E+00  0.00000000E+00
  0.00000000E+00  0.00000000E+00  0.00000000E+00
  0.00000000E+00  0.00000000E+00  0.00000000E+00
  0.00000000E+00  0.00000000E+00  0.00000000E+00
  0.00000000E+00  0.00000000E+00  0.00000000E+00
  0.00000000E+00  0.00000000E+00  0.00000000E+00
  0.00000000E+00  0.00000000E+00  0.00000000E+00
  0.00000000E+00  0.00000000E+00  0.00000000E+00
  0.00000000E+00  0.00000000E+00  0.00000000E+00
  0.00000000E+00  0.00000000E+00  0.00000000E+00
  0.00000000E+00  0.00000000E+00  0.00000000E+00
  0.00000000E+00  0.00000000E+00  0.00000000E+00
  0.00000000E+00  0.00000000E+00  0.00000000E+00
  0.00000000E+00  0.00000000E+00  0.00000000E+00
  0.00000000E+00  0.00000000E+00  0.00000000E+00
  0.00000000E+00  0.00000000E+00  0.00000000E+00
  0.00000000E+00  0.00000000E+00  0.00000000E+00
  0.00000000E+00  0.00000000E+00  0.00000000E+00
  0.00000000E+00  0.00000000E+00  0.00000000E+00
  0.00000000E+00  0.00000000E+00  0.00000000E+00
  0.00000000E+00  0.00000000E+00  0.00000000E+00
  0.00000000E+00  0.00000000E+00  0.00000000E+00
  0.00000000E+00  0.00000000E+00  0.00000000E+00
  0.00000000E+00  0.00000000E+00  0.00000000E+00
