Cu N O                                  
   1.00000000000000     
    10.0912000000000006    0.0000000000000000    0.0000000000000000
     0.0000000000000000   10.0912000000000006    0.0000000000000000
     0.0000000000000000    0.0000000000000000   30.0000000000000000
   Cu   N    O 
    64     1     1
Selective dynamics
Direct
  0.1249998119670011  0.1249998119670011  0.4104769008810010   F   F   F
  0.1249998119670011  0.3749994359000013  0.4104769008810010   F   F   F
  0.1249998119670011  0.6249990598330015  0.4104769008810010   F   F   F
  0.1249998119670011  0.8749986837660018  0.4104769008810010   F   F   F
  0.3749994359000013  0.1249998119670011  0.4104769008810010   F   F   F
  0.3749994359000013  0.3749994359000013  0.4104769008810010   F   F   F
  0.3749994359000013  0.6249990598330015  0.4104769008810010   F   F   F
  0.3749994359000013  0.8749986837660018  0.4104769008810010   F   F   F
  0.6249990598330015  0.1249998119670011  0.4104769008810010   F   F   F
  0.6249990598330015  0.3749994359000013  0.4104769008810010   F   F   F
  0.6249990598330015  0.6249990598330015  0.4104769008810010   F   F   F
  0.6249990598330015  0.8749986837660018  0.4104769008810010   F   F   F
  0.8749986837660018  0.1249998119670011  0.4104769008810010   F   F   F
  0.8749986837660018  0.3749994359000013  0.4104769008810010   F   F   F
  0.8749986837660018  0.6249990598330015  0.4104769008810010   F   F   F
  0.8749986837660018  0.8749986837660018  0.4104769008810010   F   F   F
  0.0000501571484893  0.0002260080304704  0.4698972613494550   T   T   T
  0.9999614228431822  0.2501482200642435  0.4699195781253381   T   T   T
  0.9999436914059593  0.5000719760226098  0.4699177015006906   T   T   T
  0.0000440853653761  0.7499715536889886  0.4699021550783025   T   T   T
  0.2499560915298122  0.0002899057303508  0.4699157074753099   T   T   T
  0.2490666723749128  0.2494186947048184  0.4694290019721783   T   T   T
  0.2490397795848256  0.5009539654079953  0.4694471624690330   T   T   T
  0.2499449307151865  0.7500230741710204  0.4699222663070969   T   T   T
  0.4998868082253646  0.0002597082174556  0.4699094187865364   T   T   T
  0.5006127435384871  0.2493887912964633  0.4694039363768510   T   T   T
  0.5005877738526875  0.5009423681755979  0.4694166584498370   T   T   T
  0.4998808949458225  0.7500222957070219  0.4699179456054139   T   T   T
  0.7498046229986389  0.0002175916685759  0.4698956828028571   T   T   T
  0.7497163968465970  0.2501343388976229  0.4699148342539594   T   T   T
  0.7496881754040687  0.5000685824062527  0.4699163244055286   T   T   T
  0.7497899384522048  0.7499640022691514  0.4698959026027727   T   T   T
  0.1258286013991951  0.1263270519851259  0.5309772426154198   T   T   T
  0.1264257154277659  0.3752802029749483  0.5307161956563828   T   T   T
  0.1257913422890024  0.6242491357467298  0.5309903676157554   T   T   T
  0.1250617074237293  0.8752631836141791  0.5303985904593654   T   T   T
  0.3748116043115447  0.1272145766005737  0.5306941947064988   T   T   T
  0.3746914294105136  0.3753521853854908  0.5273174474529658   T   T   T
  0.3747951851124871  0.6235554356152654  0.5307184670128514   T   T   T
  0.3749354416986055  0.8753725617173579  0.5303057144620210   T   T   T
  0.6237282587584847  0.1263291902289400  0.5309676519583907   T   T   T
  0.6227705184275473  0.3752674814488021  0.5307015149943383   T   T   T
  0.6237037934032520  0.6242053914015411  0.5309912322535643   T   T   T
  0.6247671453682655  0.8752388801926203  0.5304029973893499   T   T   T
  0.8747902820241057  0.1252887671634137  0.5304021732679191   T   T   T
  0.8746241748888191  0.3751581000741901  0.5303073049521254   T   T   T
  0.8747611371161660  0.6249880951460924  0.5304010849770896   T   T   T
  0.8749102613968716  0.8751329603585490  0.5304933936792209   T   T   T
 -0.0000310082937295  0.0002293253572477  0.5896446273388113   T   T   T
  0.9993279298611154  0.2504032921561072  0.5896788660693302   T   T   T
  0.9992844067371910  0.4999726790697260  0.5896861975514931   T   T   T
 -0.0000878871997429  0.7501397526243682  0.5896543704084133   T   T   T
  0.2501492599890106  0.0002011460833014  0.5896555269008029   T   T   T
  0.2490877915877895  0.2499834827513654  0.5915542467678279   T   T   T
  0.2489344556825673  0.5011134685227555  0.5915915517914386   T   T   T
  0.2500996210909426  0.7507783109504660  0.5896757137317393   T   T   T
  0.4996570701716264  0.0002494858295639  0.5896574695780814   T   T   T
  0.5000342699092398  0.2500228714060106  0.5915749727202019   T   T   T
  0.5000655276652327  0.5009769287618788  0.5915913147136413   T   T   T
  0.4996654213262945  0.7507214986228887  0.5896871473760941   T   T   T
  0.7498179297188994  0.0002449799618854  0.5896339758728730   T   T   T
  0.7498323220943106  0.2504242899971635  0.5896564851692037   T   T   T
  0.7498394583531464  0.4999265489378908  0.5896656390713251   T   T   T
  0.7498381913882484  0.7501053495311819  0.5896551625175240   T   T   T
  0.3742142505156106  0.3759079935358994  0.6286038652116286   T   T   T
  0.3744962212440188  0.3759005740258668  0.6699954917176337   T   T   T
 
  0.00000000E+00  0.00000000E+00  0.00000000E+00
  0.00000000E+00  0.00000000E+00  0.00000000E+00
  0.00000000E+00  0.00000000E+00  0.00000000E+00
  0.00000000E+00  0.00000000E+00  0.00000000E+00
  0.00000000E+00  0.00000000E+00  0.00000000E+00
  0.00000000E+00  0.00000000E+00  0.00000000E+00
  0.00000000E+00  0.00000000E+00  0.00000000E+00
  0.00000000E+00  0.00000000E+00  0.00000000E+00
  0.00000000E+00  0.00000000E+00  0.00000000E+00
  0.00000000E+00  0.00000000E+00  0.00000000E+00
  0.00000000E+00  0.00000000E+00  0.00000000E+00
  0.00000000E+00  0.00000000E+00  0.00000000E+00
  0.00000000E+00  0.00000000E+00  0.00000000E+00
  0.00000000E+00  0.00000000E+00  0.00000000E+00
  0.00000000E+00  0.00000000E+00  0.00000000E+00
  0.00000000E+00  0.00000000E+00  0.00000000E+00
  0.00000000E+00  0.00000000E+00  0.00000000E+00
  0.00000000E+00  0.00000000E+00  0.00000000E+00
  0.00000000E+00  0.00000000E+00  0.00000000E+00
  0.00000000E+00  0.00000000E+00  0.00000000E+00
  0.00000000E+00  0.00000000E+00  0.00000000E+00
  0.00000000E+00  0.00000000E+00  0.00000000E+00
  0.00000000E+00  0.00000000E+00  0.00000000E+00
  0.00000000E+00  0.00000000E+00  0.00000000E+00
  0.00000000E+00  0.00000000E+00  0.00000000E+00
  0.00000000E+00  0.00000000E+00  0.00000000E+00
  0.00000000E+00  0.00000000E+00  0.00000000E+00
  0.00000000E+00  0.00000000E+00  0.00000000E+00
  0.00000000E+00  0.00000000E+00  0.00000000E+00
  0.00000000E+00  0.00000000E+00  0.00000000E+00
  0.00000000E+00  0.00000000E+00  0.00000000E+00
  0.00000000E+00  0.00000000E+00  0.00000000E+00
  0.00000000E+00  0.00000000E+00  0.00000000E+00
  0.00000000E+00  0.00000000E+00  0.00000000E+00
  0.00000000E+00  0.00000000E+00  0.00000000E+00
  0.00000000E+00  0.00000000E+00  0.00000000E+00
  0.00000000E+00  0.00000000E+00  0.00000000E+00
  0.00000000E+00  0.00000000E+00  0.00000000E+00
  0.00000000E+00  0.00000000E+00  0.00000000E+00
  0.00000000E+00  0.00000000E+00  0.00000000E+00
  0.00000000E+00  0.00000000E+00  0.00000000E+00
  0.00000000E+00  0.00000000E+00  0.00000000E+00
  0.00000000E+00  0.00000000E+00  0.00000000E+00
  0.00000000E+00  0.00000000E+00  0.00000000E+00
  0.00000000E+00  0.00000000E+00  0.00000000E+00
  0.00000000E+00  0.00000000E+00  0.00000000E+00
  0.00000000E+00  0.00000000E+00  0.00000000E+00
  0.00000000E+00  0.00000000E+00  0.00000000E+00
  0.00000000E+00  0.00000000E+00  0.00000000E+00
  0.00000000E+00  0.00000000E+00  0.00000000E+00
  0.00000000E+00  0.00000000E+00  0.00000000E+00
  0.00000000E+00  0.00000000E+00  0.00000000E+00
  0.00000000E+00  0.00000000E+00  0.00000000E+00
  0.00000000E+00  0.00000000E+00  0.00000000E+00
  0.00000000E+00  0.00000000E+00  0.00000000E+00
  0.00000000E+00  0.00000000E+00  0.00000000E+00
  0.00000000E+00  0.00000000E+00  0.00000000E+00
  0.00000000E+00  0.00000000E+00  0.00000000E+00
  0.00000000E+00  0.00000000E+00  0.00000000E+00
  0.00000000E+00  0.00000000E+00  0.00000000E+00
  0.00000000E+00  0.00000000E+00  0.00000000E+00
  0.00000000E+00  0.00000000E+00  0.00000000E+00
  0.00000000E+00  0.00000000E+00  0.00000000E+00
  0.00000000E+00  0.00000000E+00  0.00000000E+00
  0.00000000E+00  0.00000000E+00  0.00000000E+00
  0.00000000E+00  0.00000000E+00  0.00000000E+00
