Pd N O                                  
   1.00000000000000     
    10.9819999999999993    0.0000000000000000    0.0000000000000000
     0.0000000000000000   10.9819999999999993    0.0000000000000000
     0.0000000000000000    0.0000000000000000   30.0000000000000000
   Pd   N    O 
    64     1     1
Selective dynamics
Direct
  0.1249995473439967  0.1249995473439967  0.4029322681199972   F   F   F
  0.1249995473439967  0.3749986420319971  0.4029322681199972   F   F   F
  0.1249995473439967  0.6249977367199975  0.4029322681199972   F   F   F
  0.1249995473439967  0.8749968314079979  0.4029322681199972   F   F   F
  0.3749986420319971  0.1249995473439967  0.4029322681199972   F   F   F
  0.3749986420319971  0.3749986420319971  0.4029322681199972   F   F   F
  0.3749986420319971  0.6249977367199975  0.4029322681199972   F   F   F
  0.3749986420319971  0.8749968314079979  0.4029322681199972   F   F   F
  0.6249977367199975  0.1249995473439967  0.4029322681199972   F   F   F
  0.6249977367199975  0.3749986420319971  0.4029322681199972   F   F   F
  0.6249977367199975  0.6249977367199975  0.4029322681199972   F   F   F
  0.6249977367199975  0.8749968314079979  0.4029322681199972   F   F   F
  0.8749968314079979  0.1249995473439967  0.4029322681199972   F   F   F
  0.8749968314079979  0.3749986420319971  0.4029322681199972   F   F   F
  0.8749968314079979  0.6249977367199975  0.4029322681199972   F   F   F
  0.8749968314079979  0.8749968314079979  0.4029322681199972   F   F   F
 -0.0000406394367612 -0.0000627993618665  0.4680577785338502   T   T   T
  0.0000192003392118  0.2496109842275155  0.4680607126614031   T   T   T
  0.0000376425854517  0.5001781043094735  0.4680679586170686   T   T   T
 -0.0000372725827597  0.7498490506941994  0.4680678781729150   T   T   T
  0.2496859297038285 -0.0001214632666123  0.4680214408379718   T   T   T
  0.2497844047928721  0.2496181893434524  0.4679708878572832   T   T   T
  0.2497841297449517  0.4999943833947174  0.4679637185075672   T   T   T
  0.2496914321138171  0.7496907360473307  0.4680145774374520   T   T   T
  0.5003339099332417 -0.0001251080066283  0.4680281030684517   T   T   T
  0.5002437717697448  0.2496077557597884  0.4679791296526822   T   T   T
  0.5002474465969159  0.4999893965328648  0.4679705678248198   T   T   T
  0.5003300601607682  0.7496832168983462  0.4680206661197002   T   T   T
  0.7500198722696637 -0.0000653163057699  0.4680638873589603   T   T   T
  0.7499702916474311  0.2496109549002610  0.4680655579275337   T   T   T
  0.7499574082088872  0.5001747263726795  0.4680746284096069   T   T   T
  0.7500219710167386  0.7498526240018643  0.4680738857773128   T   T   T
  0.1262467359678206  0.1259935166477780  0.5335762167323478   T   T   T
  0.1244386484338497  0.3747359248051292  0.5329100547581692   T   T   T
  0.1262037736320218  0.6233821226556260  0.5335790724179524   T   T   T
  0.1249438861134354  0.8747487115952202  0.5329352758321428   T   T   T
  0.3750135270849455  0.1240075290638383  0.5328138164517392   T   T   T
  0.3750114993215655  0.3746177916895435  0.5316679966899325   T   T   T
  0.3750136833714529  0.6250061429776741  0.5328104932226716   T   T   T
  0.3750082641827682  0.8746125525014734  0.5327833594954354   T   T   T
  0.6237521055121246  0.1259741609358259  0.5336037579074600   T   T   T
  0.6255708832468838  0.3747180443989209  0.5329329949980111   T   T   T
  0.6237960871394512  0.6233609831228535  0.5335986388037273   T   T   T
  0.6250515197247262  0.8747423503306191  0.5329584202386106   T   T   T
  0.8749863608522790  0.1248277457423498  0.5329897959846915   T   T   T
  0.8749991435261171  0.3748434565454110  0.5329140678032421   T   T   T
  0.8749993783922381  0.6248164379460134  0.5329968335483432   T   T   T
  0.8749861233839313  0.8748669946767738  0.5329326730715572   T   T   T
  0.0000446309584368  0.9997522877214737  0.5980473160642447   T   T   T
  0.9997162813101260  0.2498167307262009  0.5982755572463606   T   T   T
  0.9997437263781294  0.4996997535382498  0.5982715281129998   T   T   T
  0.0000195312773406  0.7498094051802555  0.5980287772426773   T   T   T
  0.2501065880265551  0.9991361391733051  0.5981509931042948   T   T   T
  0.2507586920904830  0.2501713342507842  0.5998994509670817   T   T   T
  0.2507928798648091  0.4986899561554781  0.5999162162735170   T   T   T
  0.2500884908744411  0.7497421192201057  0.5981130524195972   T   T   T
  0.4998820368738586 -0.0009354374112080  0.5981740335119706   T   T   T
  0.4992080392906561  0.2501006624841063  0.5999149396869025   T   T   T
  0.4991847083504745  0.4986079544810768  0.5999324634042602   T   T   T
  0.4998830159247742  0.7496649987896934  0.5981231670785789   T   T   T
  0.7499800838633457  0.9997709448305406  0.5980727850758404   T   T   T
  0.7502936182069230  0.2498433664567304  0.5983055465965740   T   T   T
  0.7502828246254509  0.4997147495018814  0.5982878459110605   T   T   T
  0.7499899961618476  0.7498298103649851  0.5980464187279078   T   T   T
  0.3748907732064652  0.3734755073134982  0.6347451745081987   T   T   T
  0.3748328545972668  0.3731654916105642  0.6754974524725198   T   T   T
 
  0.00000000E+00  0.00000000E+00  0.00000000E+00
  0.00000000E+00  0.00000000E+00  0.00000000E+00
  0.00000000E+00  0.00000000E+00  0.00000000E+00
  0.00000000E+00  0.00000000E+00  0.00000000E+00
  0.00000000E+00  0.00000000E+00  0.00000000E+00
  0.00000000E+00  0.00000000E+00  0.00000000E+00
  0.00000000E+00  0.00000000E+00  0.00000000E+00
  0.00000000E+00  0.00000000E+00  0.00000000E+00
  0.00000000E+00  0.00000000E+00  0.00000000E+00
  0.00000000E+00  0.00000000E+00  0.00000000E+00
  0.00000000E+00  0.00000000E+00  0.00000000E+00
  0.00000000E+00  0.00000000E+00  0.00000000E+00
  0.00000000E+00  0.00000000E+00  0.00000000E+00
  0.00000000E+00  0.00000000E+00  0.00000000E+00
  0.00000000E+00  0.00000000E+00  0.00000000E+00
  0.00000000E+00  0.00000000E+00  0.00000000E+00
  0.00000000E+00  0.00000000E+00  0.00000000E+00
  0.00000000E+00  0.00000000E+00  0.00000000E+00
  0.00000000E+00  0.00000000E+00  0.00000000E+00
  0.00000000E+00  0.00000000E+00  0.00000000E+00
  0.00000000E+00  0.00000000E+00  0.00000000E+00
  0.00000000E+00  0.00000000E+00  0.00000000E+00
  0.00000000E+00  0.00000000E+00  0.00000000E+00
  0.00000000E+00  0.00000000E+00  0.00000000E+00
  0.00000000E+00  0.00000000E+00  0.00000000E+00
  0.00000000E+00  0.00000000E+00  0.00000000E+00
  0.00000000E+00  0.00000000E+00  0.00000000E+00
  0.00000000E+00  0.00000000E+00  0.00000000E+00
  0.00000000E+00  0.00000000E+00  0.00000000E+00
  0.00000000E+00  0.00000000E+00  0.00000000E+00
  0.00000000E+00  0.00000000E+00  0.00000000E+00
  0.00000000E+00  0.00000000E+00  0.00000000E+00
  0.00000000E+00  0.00000000E+00  0.00000000E+00
  0.00000000E+00  0.00000000E+00  0.00000000E+00
  0.00000000E+00  0.00000000E+00  0.00000000E+00
  0.00000000E+00  0.00000000E+00  0.00000000E+00
  0.00000000E+00  0.00000000E+00  0.00000000E+00
  0.00000000E+00  0.00000000E+00  0.00000000E+00
  0.00000000E+00  0.00000000E+00  0.00000000E+00
  0.00000000E+00  0.00000000E+00  0.00000000E+00
  0.00000000E+00  0.00000000E+00  0.00000000E+00
  0.00000000E+00  0.00000000E+00  0.00000000E+00
  0.00000000E+00  0.00000000E+00  0.00000000E+00
  0.00000000E+00  0.00000000E+00  0.00000000E+00
  0.00000000E+00  0.00000000E+00  0.00000000E+00
  0.00000000E+00  0.00000000E+00  0.00000000E+00
  0.00000000E+00  0.00000000E+00  0.00000000E+00
  0.00000000E+00  0.00000000E+00  0.00000000E+00
  0.00000000E+00  0.00000000E+00  0.00000000E+00
  0.00000000E+00  0.00000000E+00  0.00000000E+00
  0.00000000E+00  0.00000000E+00  0.00000000E+00
  0.00000000E+00  0.00000000E+00  0.00000000E+00
  0.00000000E+00  0.00000000E+00  0.00000000E+00
  0.00000000E+00  0.00000000E+00  0.00000000E+00
  0.00000000E+00  0.00000000E+00  0.00000000E+00
  0.00000000E+00  0.00000000E+00  0.00000000E+00
  0.00000000E+00  0.00000000E+00  0.00000000E+00
  0.00000000E+00  0.00000000E+00  0.00000000E+00
  0.00000000E+00  0.00000000E+00  0.00000000E+00
  0.00000000E+00  0.00000000E+00  0.00000000E+00
  0.00000000E+00  0.00000000E+00  0.00000000E+00
  0.00000000E+00  0.00000000E+00  0.00000000E+00
  0.00000000E+00  0.00000000E+00  0.00000000E+00
  0.00000000E+00  0.00000000E+00  0.00000000E+00
  0.00000000E+00  0.00000000E+00  0.00000000E+00
  0.00000000E+00  0.00000000E+00  0.00000000E+00
