N O Pd
1.0
 10.982000000000   0.000000000000   0.000000000000
  0.000000000000  10.982000000000   0.000000000000
  0.000000000000   0.000000000000  30.000000000000
N O Pd
  9   8  64
Selective dynamics
Direct
  0.433264482312   0.400834467966   0.644586263134  T T T
  0.395167482203   0.925360856767   0.642759422590  T T T
  0.756035377688   0.372052721764   0.650032121240  T T T
  0.903973534731   0.913331277359   0.643301434768  T T T
  0.597498099814   0.672879014167   0.643219462335  T T T
  0.657938683525   0.091327263172   0.644834651375  T T T
  0.124841381788   0.739825470430   0.649777732197  T T T
  0.120069289006   0.276559616178   0.648059465602  T T T
  0.124571459955   0.463172499273   0.641667122096  T T T
  0.442520769271   0.394351636264   0.684501660921  T T T
  0.387389844225   0.925983095822   0.682913672331  T T T
  0.735231335876   0.382074580123   0.688861610876  T T T
  0.910861130561   0.925146284824   0.683257845398  T T T
  0.602682423225   0.676056612200   0.683467854321  T T T
  0.657836292244   0.086744308940   0.685030726505  T T T
  0.136427763145   0.768778250345   0.687792232798  T T T
  0.118696898940   0.237740981805   0.685435831174  T T T
  0.124999547344   0.124999547344   0.402932268120  F F F
  0.124999547344   0.374998642032   0.402932268120  F F F
  0.124999547344   0.624997736720   0.402932268120  F F F
  0.124999547344   0.874996831408   0.402932268120  F F F
  0.374998642032   0.124999547344   0.402932268120  F F F
  0.374998642032   0.374998642032   0.402932268120  F F F
  0.374998642032   0.624997736720   0.402932268120  F F F
  0.374998642032   0.874996831408   0.402932268120  F F F
  0.624997736720   0.124999547344   0.402932268120  F F F
  0.624997736720   0.374998642032   0.402932268120  F F F
  0.624997736720   0.624997736720   0.402932268120  F F F
  0.624997736720   0.874996831408   0.402932268120  F F F
  0.874996831408   0.124999547344   0.402932268120  F F F
  0.874996831408   0.374998642032   0.402932268120  F F F
  0.874996831408   0.624997736720   0.402932268120  F F F
  0.874996831408   0.874996831408   0.402932268120  F F F
  0.999079966405   0.998726048341   0.468341074669  F F F
  0.000328254104   0.248918362513   0.468165334834  F F F
  0.999425472702   0.500141351388   0.468335051630  F F F
  0.998480464669   0.748730755805   0.468245165431  F F F
  0.251253931913   0.000857695145   0.467832437662  F F F
  0.250003579881   0.250519113113   0.468038986264  F F F
  0.249532727539   0.501527350866   0.468136347305  F F F
  0.248920207975   0.749960246587   0.468156533383  F F F
  0.500987143877   0.002462423237   0.468397709777  F F F
  0.499982384746   0.251860292811   0.468236776512  F F F
  0.499810479188   0.502511534038   0.467943613692  F F F
  0.499240734240   0.752227655752   0.468199670574  F F F
  0.750171433606   0.999857105935   0.468440321870  F F F
  0.750143426312   0.249710762580   0.467963021935  F F F
  0.750877762129   0.500026010332   0.468167334409  F F F
  0.749742054318   0.749840499561   0.468189894079  F F F
  0.126873000814   0.120469052893   0.533345595125  F F F
  0.125328497822   0.374169543128   0.532799629191  F F F
  0.122747126306   0.625468839919   0.533810474823  F F F
  0.124870780999   0.874716099913   0.532785329153  F F F
  0.376856450805   0.129925726523   0.534043124790  F F F
  0.374180350406   0.381357998450   0.533002027338  F F F
  0.373288844417   0.628926647214   0.534526446865  F F F
  0.375373251463   0.877662352943   0.533121415148  F F F
  0.626685258529   0.129163062337   0.534558378687  F F F
  0.625192719701   0.377670478151   0.533171578298  F F F
  0.623956312595   0.626549698891   0.533098594616  F F F
  0.624561939618   0.878232203705   0.533527857002  F F F
  0.874372058486   0.124683182644   0.533851682770  F F F
  0.874025463659   0.371765582713   0.533536286155  F F F
  0.873920612513   0.622607583281   0.535921258607  F F F
  0.873336801806   0.869892529876   0.534549881509  F F F
  0.009976859168   0.003130473426   0.599890678491  F F F
  0.994111329543   0.246430700098   0.600069115979  F F F
  0.004454876994   0.499640072505   0.600165387878  F F F
  0.984587958061   0.756064905606   0.606694449778  F F F
  0.261747127847   0.992528952368   0.601722288889  F F F
  0.245702396785   0.239871026257   0.600419653875  F F F
  0.260183263585   0.491749756379   0.604332063727  F F F
  0.241461292826   0.744796964044   0.600751241403  F F F
  0.514143729279   0.023194132027   0.603690389596  F F F
  0.489516193758   0.271075128030   0.601413368334  F F F
  0.511605093420   0.524095415374   0.603166552313  F F F
  0.484391160059   0.773723791452   0.603674329328  F F F
  0.761160271900   0.986230330689   0.602826681610  F F F
  0.739334184677   0.237736013983   0.605908195507  F F F
  0.759210839536   0.492163575064   0.602274643566  F F F
  0.733931160092   0.738042298967   0.602546654413  F F F
