Cu H N O                                
   1.00000000000000     
    10.0912000000000006    0.0000000000000000    0.0000000000000000
     0.0000000000000000   10.0912000000000006    0.0000000000000000
     0.0000000000000000    0.0000000000000000   30.0000000000000000
   Cu   H    N    O 
    64     3     1     2
Selective dynamics
Direct
  0.1249998119670011  0.1249998119670011  0.4104769008810010   F   F   F
  0.1249998119670011  0.3749994359000013  0.4104769008810010   F   F   F
  0.1249998119670011  0.6249990598330015  0.4104769008810010   F   F   F
  0.1249998119670011  0.8749986837660018  0.4104769008810010   F   F   F
  0.3749994359000013  0.1249998119670011  0.4104769008810010   F   F   F
  0.3749994359000013  0.3749994359000013  0.4104769008810010   F   F   F
  0.3749994359000013  0.6249990598330015  0.4104769008810010   F   F   F
  0.3749994359000013  0.8749986837660018  0.4104769008810010   F   F   F
  0.6249990598330015  0.1249998119670011  0.4104769008810010   F   F   F
  0.6249990598330015  0.3749994359000013  0.4104769008810010   F   F   F
  0.6249990598330015  0.6249990598330015  0.4104769008810010   F   F   F
  0.6249990598330015  0.8749986837660018  0.4104769008810010   F   F   F
  0.8749986837660018  0.1249998119670011  0.4104769008810010   F   F   F
  0.8749986837660018  0.3749994359000013  0.4104769008810010   F   F   F
  0.8749986837660018  0.6249990598330015  0.4104769008810010   F   F   F
  0.8749986837660018  0.8749986837660018  0.4104769008810010   F   F   F
  0.0002461321361316  0.0001321303215073  0.4699270914193083   T   T   T
  0.0001265345664863  0.2499176658679494  0.4698722139770562   T   T   T
  0.0001640475286350  0.4999973576172037  0.4698620083038664   T   T   T
  0.0003305292868377  0.7498359379479680  0.4699369038701652   T   T   T
  0.2500443604966764  0.0001379157723339  0.4700006713386067   T   T   T
  0.2489949599626444  0.2490485027573976  0.4694897523429677   T   T   T
  0.2490187272062893  0.5008254953849202  0.4694826122984675   T   T   T
  0.2500583851093637  0.7498019326804012  0.4699914703357140   T   T   T
  0.4996874369367472  0.0001113796172264  0.4699756937321800   T   T   T
  0.5005745284359163  0.2489913526892012  0.4694295351049381   T   T   T
  0.5005952884513608  0.5009761936758325  0.4694238343476914   T   T   T
  0.4996868800644269  0.7499202610729234  0.4699613874772194   T   T   T
  0.7495716033722531  0.0001380383867124  0.4699497971396374   T   T   T
  0.7498801075425435  0.2499372361244711  0.4698709990485689   T   T   T
  0.7499176511451139  0.5000773804609763  0.4698677961826590   T   T   T
  0.7496493248765168  0.7499460234402716  0.4698934916617976   T   T   T
  0.1261425333467759  0.1266478490215023  0.5313907050150853   T   T   T
  0.1264011548514457  0.3748482966277237  0.5307093131670777   T   T   T
  0.1262840775401607  0.6230784627496410  0.5314008261177970   T   T   T
  0.1247728363023119  0.8749707590959527  0.5303648639900791   T   T   T
  0.3746308381123167  0.1269327327921246  0.5308660768590201   T   T   T
  0.3747970589778181  0.3749189973166143  0.5270185394602632   T   T   T
  0.3747639480874835  0.6229759539427354  0.5308444354880708   T   T   T
  0.3750000407475417  0.8750073303527239  0.5303972253729441   T   T   T
  0.6232963235490180  0.1265100109620905  0.5311679580189187   T   T   T
  0.6231916231252077  0.3750871589841482  0.5302946617275197   T   T   T
  0.6234853618460260  0.6237532624965981  0.5311047717932623   T   T   T
  0.6249523141421243  0.8750633927395548  0.5304123576524400   T   T   T
  0.8749750704859880  0.1246688651231295  0.5302010834290604   T   T   T
  0.8751733422770840  0.3750215375412743  0.5300772653479774   T   T   T
  0.8750671782407127  0.6254058046183492  0.5301653227330172   T   T   T
  0.8746898165116792  0.8750541335981847  0.5308265172248032   T   T   T
  0.9999050776420525  0.0001236971957690  0.5898065857087190   T   T   T
  0.9985625111154004  0.2499328090253777  0.5897540837792814   T   T   T
  0.9986575426717068  0.4998149505746092  0.5897148382805777   T   T   T
  0.0000137020703881  0.7497713955734571  0.5897738275815375   T   T   T
  0.2498759218616377  0.9993407080799593  0.5896969184936108   T   T   T
  0.2488454793273275  0.2492489164737577  0.5923811550718913   T   T   T
  0.2491224007987914  0.5003881429073814  0.5922335632309819   T   T   T
  0.2499021196186225  0.7504719514205632  0.5896547137265956   T   T   T
  0.4999798277548606  0.9997740542923949  0.5898159090373167   T   T   T
  0.5004500127159299  0.2495443154206372  0.5917978419542639   T   T   T
  0.5010882908459947  0.5006134359460779  0.5918327809522845   T   T   T
  0.4999395340012315  0.7505070639461018  0.5897223796827423   T   T   T
  0.7494151196379961  0.0008737620420499  0.5899467871626544   T   T   T
  0.7505231695391041  0.2503898698165909  0.5891988795265135   T   T   T
  0.7505756463321449  0.5000434064962501  0.5892177184776543   T   T   T
  0.7495394365091851  0.7496762953048826  0.5898330887111207   T   T   T
  0.6760747046361367  0.3962157337644470  0.6666666514577209   T   T   T
  0.6570374246095442  0.2500713068202833  0.6794799386528619   T   T   T
  0.4641590187100345  0.3629639908367123  0.6802594173387281   T   T   T
  0.3742605097786548  0.3755378670824274  0.6235636423804279   T   T   T
  0.3696386874562354  0.3771107694480091  0.6706624952206700   T   T   T
  0.6316688317814835  0.3395497730510362  0.6888082146092029   T   T   T
 
  0.00000000E+00  0.00000000E+00  0.00000000E+00
  0.00000000E+00  0.00000000E+00  0.00000000E+00
  0.00000000E+00  0.00000000E+00  0.00000000E+00
  0.00000000E+00  0.00000000E+00  0.00000000E+00
  0.00000000E+00  0.00000000E+00  0.00000000E+00
  0.00000000E+00  0.00000000E+00  0.00000000E+00
  0.00000000E+00  0.00000000E+00  0.00000000E+00
  0.00000000E+00  0.00000000E+00  0.00000000E+00
  0.00000000E+00  0.00000000E+00  0.00000000E+00
  0.00000000E+00  0.00000000E+00  0.00000000E+00
  0.00000000E+00  0.00000000E+00  0.00000000E+00
  0.00000000E+00  0.00000000E+00  0.00000000E+00
  0.00000000E+00  0.00000000E+00  0.00000000E+00
  0.00000000E+00  0.00000000E+00  0.00000000E+00
  0.00000000E+00  0.00000000E+00  0.00000000E+00
  0.00000000E+00  0.00000000E+00  0.00000000E+00
  0.00000000E+00  0.00000000E+00  0.00000000E+00
  0.00000000E+00  0.00000000E+00  0.00000000E+00
  0.00000000E+00  0.00000000E+00  0.00000000E+00
  0.00000000E+00  0.00000000E+00  0.00000000E+00
  0.00000000E+00  0.00000000E+00  0.00000000E+00
  0.00000000E+00  0.00000000E+00  0.00000000E+00
  0.00000000E+00  0.00000000E+00  0.00000000E+00
  0.00000000E+00  0.00000000E+00  0.00000000E+00
  0.00000000E+00  0.00000000E+00  0.00000000E+00
  0.00000000E+00  0.00000000E+00  0.00000000E+00
  0.00000000E+00  0.00000000E+00  0.00000000E+00
  0.00000000E+00  0.00000000E+00  0.00000000E+00
  0.00000000E+00  0.00000000E+00  0.00000000E+00
  0.00000000E+00  0.00000000E+00  0.00000000E+00
  0.00000000E+00  0.00000000E+00  0.00000000E+00
  0.00000000E+00  0.00000000E+00  0.00000000E+00
  0.00000000E+00  0.00000000E+00  0.00000000E+00
  0.00000000E+00  0.00000000E+00  0.00000000E+00
  0.00000000E+00  0.00000000E+00  0.00000000E+00
  0.00000000E+00  0.00000000E+00  0.00000000E+00
  0.00000000E+00  0.00000000E+00  0.00000000E+00
  0.00000000E+00  0.00000000E+00  0.00000000E+00
  0.00000000E+00  0.00000000E+00  0.00000000E+00
  0.00000000E+00  0.00000000E+00  0.00000000E+00
  0.00000000E+00  0.00000000E+00  0.00000000E+00
  0.00000000E+00  0.00000000E+00  0.00000000E+00
  0.00000000E+00  0.00000000E+00  0.00000000E+00
  0.00000000E+00  0.00000000E+00  0.00000000E+00
  0.00000000E+00  0.00000000E+00  0.00000000E+00
  0.00000000E+00  0.00000000E+00  0.00000000E+00
  0.00000000E+00  0.00000000E+00  0.00000000E+00
  0.00000000E+00  0.00000000E+00  0.00000000E+00
  0.00000000E+00  0.00000000E+00  0.00000000E+00
  0.00000000E+00  0.00000000E+00  0.00000000E+00
  0.00000000E+00  0.00000000E+00  0.00000000E+00
  0.00000000E+00  0.00000000E+00  0.00000000E+00
  0.00000000E+00  0.00000000E+00  0.00000000E+00
  0.00000000E+00  0.00000000E+00  0.00000000E+00
  0.00000000E+00  0.00000000E+00  0.00000000E+00
  0.00000000E+00  0.00000000E+00  0.00000000E+00
  0.00000000E+00  0.00000000E+00  0.00000000E+00
  0.00000000E+00  0.00000000E+00  0.00000000E+00
  0.00000000E+00  0.00000000E+00  0.00000000E+00
  0.00000000E+00  0.00000000E+00  0.00000000E+00
  0.00000000E+00  0.00000000E+00  0.00000000E+00
  0.00000000E+00  0.00000000E+00  0.00000000E+00
  0.00000000E+00  0.00000000E+00  0.00000000E+00
  0.00000000E+00  0.00000000E+00  0.00000000E+00
  0.00000000E+00  0.00000000E+00  0.00000000E+00
  0.00000000E+00  0.00000000E+00  0.00000000E+00
  0.00000000E+00  0.00000000E+00  0.00000000E+00
  0.00000000E+00  0.00000000E+00  0.00000000E+00
  0.00000000E+00  0.00000000E+00  0.00000000E+00
  0.00000000E+00  0.00000000E+00  0.00000000E+00
