H N O Pd                                
   1.00000000000000     
    10.9819999999999993    0.0000000000000000    0.0000000000000000
     0.0000000000000000   10.9819999999999993    0.0000000000000000
     0.0000000000000000    0.0000000000000000   30.0000000000000000
   H    N    O    Pd
     4     1     2    64
Selective dynamics
Direct
  0.4598379658810003  0.3246454522190021  0.6850086532390023   T   T   T
  0.1154107842509973  0.3791854339029967  0.6861779130500025   T   T   T
  0.2510256994399995  0.3289416413660007  0.6912084715769993   T   T   T
  0.1581059428679978  0.2644600876090024  0.6492265631610010   T   T   T
  0.3849997424379978  0.3756410396630017  0.6282355571740013   T   T   T
  0.3885439988169992  0.3757695274720021  0.6783756532609999   T   T   T
  0.1617418780080016  0.3029640544139980  0.6891454276183361   T   T   T
  0.1249778616479986  0.1249714221030018  0.4024468605569993   F   F   F
  0.1249839671200021  0.3750616305310004  0.4024617009200000   F   F   F
  0.1249844101240001  0.6250605668009968  0.4024978201950020   F   F   F
  0.1249827564669985  0.8749568270269990  0.4024854715479975   F   F   F
  0.3750153666420033  0.1249842219449988  0.4024345864740013   F   F   F
  0.3750134703279997  0.3750786919789988  0.4024375090300012   F   F   F
  0.3750204356409981  0.6250902599770001  0.4024798624259986   F   F   F
  0.3750228826439965  0.8749790590750024  0.4024782022270017   F   F   F
  0.6250360394629979  0.1249735259670004  0.4024485841139978   F   F   F
  0.6250533406890000  0.3750766422550029  0.4024431985530015   F   F   F
  0.6250573418739975  0.6250975149349998  0.4024903792999979   F   F   F
  0.6250352027269983  0.8749816563650015  0.4024968311560002   F   F   F
  0.8749921900090030  0.1249665053519990  0.4024650624980026   F   F   F
  0.8750158240420021  0.3750590781870002  0.4024717503999966   F   F   F
  0.8750193741329966  0.6250600458130009  0.4025148799020002   F   F   F
  0.8749918302220010  0.8749586389049995  0.4025068966080028   F   F   F
  0.0004060415869986  0.9997959596069990  0.4678120420039988   F   F   F
  0.0007515645740028  0.2495152906589979  0.4677249532860017   F   F   F
  0.0009469250069998  0.5000515448279970  0.4678018346359991   F   F   F
  0.0007423796280008  0.7495975151550027  0.4678823354229991   F   F   F
  0.2500488433339996  0.9995534412869986  0.4675997792979985   F   F   F
  0.2500776640790008  0.2492459387189996  0.4674979429689969   F   F   F
  0.2504267234279993  0.5000577136840008  0.4675134106179968   F   F   F
  0.2502793151540033  0.7495462035340026  0.4677200597339990   F   F   F
  0.5010344670520013  0.9996977948369974  0.4675089907290015   F   F   F
  0.5011451339340027  0.2494341296379972  0.4674894435160013   F   F   F
  0.5014576866159999  0.5004828411249989  0.4672866430479985   F   F   F
  0.5010995562969995  0.7499312896430013  0.4677241678770017   F   F   F
  0.7505874804700028  0.9999056542799991  0.4677172343379965   F   F   F
  0.7510710421240034  0.2494707575920003  0.4677508426619994   F   F   F
  0.7511898766399980  0.5003404302339973  0.4676703650009983   F   F   F
  0.7508512849979994  0.7499904342160022  0.4677282386650035   F   F   F
  0.1268153562349994  0.1253113524870031  0.5334790160910003   F   F   F
  0.1256916107690031  0.3745027103280023  0.5328052342470002   F   F   F
  0.1281028633190004  0.6227947973249996  0.5338054471259994   F   F   F
  0.1259329463949967  0.8742710768700022  0.5328409588610015   F   F   F
  0.3757476822880008  0.1231543967720015  0.5322807945769981   F   F   F
  0.3765323011550024  0.3748465910639993  0.5303669725449964   F   F   F
  0.3765899597219970  0.6253346652939982  0.5325536321550004   F   F   F
  0.3757796633739972  0.8745497140300031  0.5325651779699996   F   F   F
  0.6250373151089974  0.1259757862620035  0.5335345528869979   F   F   F
  0.6282612509190031  0.3751091972569967  0.5323539988250019   F   F   F
  0.6254010542949970  0.6236013878869997  0.5334215621579972   F   F   F
  0.6257560601990022  0.8749156699719975  0.5327824691320018   F   F   F
  0.8764784272689994  0.1250067536940023  0.5330452030230006   F   F   F
  0.8774090378920008  0.3744436286989981  0.5328930052960033   F   F   F
  0.8767588610210026  0.6244135777989968  0.5329412991910019   F   F   F
  0.8759703955320006  0.8747753919880026  0.5327888635619971   F   F   F
  0.0007839022459990  0.9990162201649966  0.5981756290589999   F   F   F
  0.0034900954999983  0.2496198589860015  0.5994668308719966   F   F   F
  0.0027104336679997  0.4991498574759987  0.5987418317100008   F   F   F
  0.0012536139980028  0.7493138140930000  0.5981315101640021   F   F   F
  0.2511527873739965  0.9984011730590012  0.5983007160279996   F   F   F
  0.2511632569610001  0.2480132373939981  0.5993017486639971   F   F   F
  0.2540412357709982  0.4982759852199976  0.5999986887260036   F   F   F
  0.2515531509340008  0.7494618808879991  0.5982352544260010   F   F   F
  0.5007901420400032  0.9992817400869995  0.5982177846690035   F   F   F
  0.5017477260560028  0.2493970826060021  0.5985017963050012   F   F   F
  0.5035791987080032  0.4999099118180013  0.5995085615619971   F   F   F
  0.5012669311590017  0.7502798575049994  0.5981791935410001   F   F   F
  0.7512726363409996  0.9995388696589984  0.5980335083459991   F   F   F
  0.7532003560120017  0.2499619078090021  0.5982926320140010   F   F   F
  0.7536363038960019  0.4995837683329967  0.5982809161049971   F   F   F
  0.7515066340070007  0.7499341924220033  0.5978767744519971   F   F   F
 
  0.00000000E+00  0.00000000E+00  0.00000000E+00
  0.00000000E+00  0.00000000E+00  0.00000000E+00
  0.00000000E+00  0.00000000E+00  0.00000000E+00
  0.00000000E+00  0.00000000E+00  0.00000000E+00
  0.00000000E+00  0.00000000E+00  0.00000000E+00
  0.00000000E+00  0.00000000E+00  0.00000000E+00
  0.00000000E+00  0.00000000E+00  0.00000000E+00
  0.00000000E+00  0.00000000E+00  0.00000000E+00
  0.00000000E+00  0.00000000E+00  0.00000000E+00
  0.00000000E+00  0.00000000E+00  0.00000000E+00
  0.00000000E+00  0.00000000E+00  0.00000000E+00
  0.00000000E+00  0.00000000E+00  0.00000000E+00
  0.00000000E+00  0.00000000E+00  0.00000000E+00
  0.00000000E+00  0.00000000E+00  0.00000000E+00
  0.00000000E+00  0.00000000E+00  0.00000000E+00
  0.00000000E+00  0.00000000E+00  0.00000000E+00
  0.00000000E+00  0.00000000E+00  0.00000000E+00
  0.00000000E+00  0.00000000E+00  0.00000000E+00
  0.00000000E+00  0.00000000E+00  0.00000000E+00
  0.00000000E+00  0.00000000E+00  0.00000000E+00
  0.00000000E+00  0.00000000E+00  0.00000000E+00
  0.00000000E+00  0.00000000E+00  0.00000000E+00
  0.00000000E+00  0.00000000E+00  0.00000000E+00
  0.00000000E+00  0.00000000E+00  0.00000000E+00
  0.00000000E+00  0.00000000E+00  0.00000000E+00
  0.00000000E+00  0.00000000E+00  0.00000000E+00
  0.00000000E+00  0.00000000E+00  0.00000000E+00
  0.00000000E+00  0.00000000E+00  0.00000000E+00
  0.00000000E+00  0.00000000E+00  0.00000000E+00
  0.00000000E+00  0.00000000E+00  0.00000000E+00
  0.00000000E+00  0.00000000E+00  0.00000000E+00
  0.00000000E+00  0.00000000E+00  0.00000000E+00
  0.00000000E+00  0.00000000E+00  0.00000000E+00
  0.00000000E+00  0.00000000E+00  0.00000000E+00
  0.00000000E+00  0.00000000E+00  0.00000000E+00
  0.00000000E+00  0.00000000E+00  0.00000000E+00
  0.00000000E+00  0.00000000E+00  0.00000000E+00
  0.00000000E+00  0.00000000E+00  0.00000000E+00
  0.00000000E+00  0.00000000E+00  0.00000000E+00
  0.00000000E+00  0.00000000E+00  0.00000000E+00
  0.00000000E+00  0.00000000E+00  0.00000000E+00
  0.00000000E+00  0.00000000E+00  0.00000000E+00
  0.00000000E+00  0.00000000E+00  0.00000000E+00
  0.00000000E+00  0.00000000E+00  0.00000000E+00
  0.00000000E+00  0.00000000E+00  0.00000000E+00
  0.00000000E+00  0.00000000E+00  0.00000000E+00
  0.00000000E+00  0.00000000E+00  0.00000000E+00
  0.00000000E+00  0.00000000E+00  0.00000000E+00
  0.00000000E+00  0.00000000E+00  0.00000000E+00
  0.00000000E+00  0.00000000E+00  0.00000000E+00
  0.00000000E+00  0.00000000E+00  0.00000000E+00
  0.00000000E+00  0.00000000E+00  0.00000000E+00
  0.00000000E+00  0.00000000E+00  0.00000000E+00
  0.00000000E+00  0.00000000E+00  0.00000000E+00
  0.00000000E+00  0.00000000E+00  0.00000000E+00
  0.00000000E+00  0.00000000E+00  0.00000000E+00
  0.00000000E+00  0.00000000E+00  0.00000000E+00
  0.00000000E+00  0.00000000E+00  0.00000000E+00
  0.00000000E+00  0.00000000E+00  0.00000000E+00
  0.00000000E+00  0.00000000E+00  0.00000000E+00
  0.00000000E+00  0.00000000E+00  0.00000000E+00
  0.00000000E+00  0.00000000E+00  0.00000000E+00
  0.00000000E+00  0.00000000E+00  0.00000000E+00
  0.00000000E+00  0.00000000E+00  0.00000000E+00
  0.00000000E+00  0.00000000E+00  0.00000000E+00
  0.00000000E+00  0.00000000E+00  0.00000000E+00
  0.00000000E+00  0.00000000E+00  0.00000000E+00
  0.00000000E+00  0.00000000E+00  0.00000000E+00
  0.00000000E+00  0.00000000E+00  0.00000000E+00
  0.00000000E+00  0.00000000E+00  0.00000000E+00
  0.00000000E+00  0.00000000E+00  0.00000000E+00
