Pd N O H
1.0
 10.982000000000   0.000000000000   0.000000000000
  0.000000000000  10.982000000000   0.000000000000
  0.000000000000   0.000000000000  30.000000000000
Pd N O H
 64   1   1   1
Selective dynamics
Direct
  0.124993722670   0.124946899535   0.402858485213  F F F
  0.124990281063   0.374967729513   0.402842128183  F F F
  0.125002005393   0.625006594253   0.402854237558  F F F
  0.125008332480   0.874985589710   0.402871078461  F F F
  0.374998639596   0.124940730698   0.402859419200  F F F
  0.374998662676   0.374970303011   0.402843486245  F F F
  0.374998647702   0.625004636857   0.402868415138  F F F
  0.374998644304   0.874974473054   0.402878884806  F F F
  0.625003198501   0.124946857103   0.402858656196  F F F
  0.625006530212   0.374967781951   0.402842373774  F F F
  0.624994718696   0.625006480075   0.402854538218  F F F
  0.624988495945   0.874985368762   0.402871299896  F F F
  0.874996423183   0.124954079887   0.402857882444  F F F
  0.874996355457   0.374964568095   0.402842032264  F F F
  0.874996296644   0.625005532008   0.402846694687  F F F
  0.874996384655   0.875000132458   0.402863429507  F F F
  0.999913645561   0.999583103996   0.467840246055  F F F
  0.000016476781   0.249845192749   0.467802242947  F F F
  0.000536770464   0.499435007050   0.468236949521  F F F
  0.000167997105   0.749199333351   0.467927325950  F F F
  0.250104185665   0.999292250815   0.467915970193  F F F
  0.249708992315   0.249760516231   0.468027201116  F F F
  0.250251271118   0.499593000923   0.468217492770  F F F
  0.250063169772   0.748890896285   0.468209855261  F F F
  0.499876416135   0.999354569738   0.467868431408  F F F
  0.500294839689   0.249766603805   0.467971534753  F F F
  0.499760817829   0.499563727655   0.468259019355  F F F
  0.499887324430   0.748807998829   0.468138534437  F F F
  0.750100455825   0.999481796894   0.467859666864  F F F
  0.750074406384   0.249842795812   0.467793687104  F F F
  0.749640106082   0.499440864022   0.468238162216  F F F
  0.749767912461   0.749206287080   0.467934163776  F F F
  0.124727198121   0.124263859575   0.532735543580  F F F
  0.126026801578   0.374779766701   0.533641244735  F F F
  0.125301445814   0.623820856089   0.533390469667  F F F
  0.125127942119   0.873935018004   0.532721140529  F F F
  0.374994109356   0.123476180116   0.532592533205  F F F
  0.375102374480   0.373109306884   0.533152984400  F F F
  0.374993108977   0.623124146551   0.533574324742  F F F
  0.375056453733   0.873663145614   0.532926755825  F F F
  0.625339728763   0.124218045737   0.532664027190  F F F
  0.624095230369   0.374713962821   0.533572870981  F F F
  0.624694833151   0.623815241940   0.533356633415  F F F
  0.624807000897   0.873941765265   0.532731105332  F F F
  0.874976521234   0.124415984657   0.532760256738  F F F
  0.875101531186   0.374027286730   0.532941016955  F F F
  0.874968705584   0.624201387800   0.532867932310  F F F
  0.874908367009   0.874250251565   0.532689462002  F F F
  0.999826393082   0.998719788937   0.597925012727  F F F
  0.999604823507   0.248297848510   0.598226022058  F F F
  0.999256699009   0.499094907823   0.598401631426  F F F
  0.999211858238   0.749129880177   0.598160750918  F F F
  0.249867936833   0.998540690602   0.598079244890  F F F
  0.249922735616   0.245559382863   0.598129476179  F F F
  0.247156472187   0.494713141170   0.601063555004  F F F
  0.248858604240   0.751138573885   0.599095627259  F F F
  0.500027895177   0.998688254891   0.598022136962  F F F
  0.500153445139   0.245626958550   0.598167935054  F F F
  0.502766741259   0.494522750483   0.601056994310  F F F
  0.501061357032   0.751142950448   0.599236655484  F F F
  0.750006978779   0.998684355414   0.597913644627  F F F
  0.750287899441   0.248447439315   0.598095893621  F F F
  0.750770429939   0.499009018420   0.598366258448  F F F
  0.750619568170   0.749171041990   0.598057126167  F F F
  0.374964142197   0.553536479185   0.645442000236  T T T
  0.374934165555   0.527307862699   0.685134941657  T T T
  0.375747435386   0.667486520260   0.634161015025  T T T
