H N O Pd                                
   1.00000000000000     
    10.9819999999999993    0.0000000000000000    0.0000000000000000
     0.0000000000000000   10.9819999999999993    0.0000000000000000
     0.0000000000000000    0.0000000000000000   30.0000000000000000
   H    N    O    Pd
     4     1     2    64
Selective dynamics
Direct
  0.5149226841311203  0.1453175367654834  0.6900843419885363   T   T   T
  0.2854812195397246  0.4043487293696014  0.6929652613438066   T   T   T
  0.4261580223027838  0.2588498267451522  0.6918897175651757   T   T   T
  0.2239704510259979  0.2808582493044610  0.6845059868155960   T   T   T
  0.3744239440811639  0.3783066867316698  0.6022221506627009   T   T   T
  0.5090358853416744  0.2311647381567208  0.6821595758961825   T   T   T
  0.2842423179862962  0.3204367121245665  0.7039675358889957   T   T   T
  0.1249995473439967  0.1249995473439967  0.4029322681199972   F   F   F
  0.1249995473439967  0.3749986420319971  0.4029322681199972   F   F   F
  0.1249995473439967  0.6249977367199975  0.4029322681199972   F   F   F
  0.1249995473439967  0.8749968314079979  0.4029322681199972   F   F   F
  0.3749986420319971  0.1249995473439967  0.4029322681199972   F   F   F
  0.3749986420319971  0.3749986420319971  0.4029322681199972   F   F   F
  0.3749986420319971  0.6249977367199975  0.4029322681199972   F   F   F
  0.3749986420319971  0.8749968314079979  0.4029322681199972   F   F   F
  0.6249977367199975  0.1249995473439967  0.4029322681199972   F   F   F
  0.6249977367199975  0.3749986420319971  0.4029322681199972   F   F   F
  0.6249977367199975  0.6249977367199975  0.4029322681199972   F   F   F
  0.6249977367199975  0.8749968314079979  0.4029322681199972   F   F   F
  0.8749968314079979  0.1249995473439967  0.4029322681199972   F   F   F
  0.8749968314079979  0.3749986420319971  0.4029322681199972   F   F   F
  0.8749968314079979  0.6249977367199975  0.4029322681199972   F   F   F
  0.8749968314079979  0.8749968314079979  0.4029322681199972   F   F   F
  0.9999379811608869  0.0000217596373715  0.4679849517194704   T   T   T
  0.0003446290034556  0.2497715405673309  0.4678697074394325   T   T   T
  0.0002214905734556  0.5003691968096792  0.4679003034997367   T   T   T
  0.9998188637072832  0.7501698484599868  0.4679551146250611   T   T   T
  0.2497481779460244  0.0005245129518797  0.4679454710677273   T   T   T
  0.2508068921836099  0.2506323260116078  0.4683762082613394   T   T   T
  0.2506568591292704  0.4995527569633972  0.4683812945975945   T   T   T
  0.2495885138320776  0.7499244154612477  0.4678758296152717   T   T   T
  0.5003551202594655  0.0004953708539077  0.4679664828170091   T   T   T
  0.4997710336738571  0.2505882601298130  0.4682088933578346   T   T   T
  0.4996885676068612  0.4995197623096294  0.4683141969330388   T   T   T
  0.5003044459947350  0.7499362403782084  0.4678626918487068   T   T   T
  0.7499984118214170  0.0001779961633174  0.4679902299897832   T   T   T
  0.7498174397896999  0.2498760702009909  0.4680279901556606   T   T   T
  0.7496793833599966  0.5003089460608776  0.4680254357141915   T   T   T
  0.7500733375998103  0.7501038774939303  0.4680030984109631   T   T   T
  0.1254692045854897  0.1254965236723790  0.5332516205685566   T   T   T
  0.1236200828774995  0.3756344766557343  0.5327879548390582   T   T   T
  0.1253441823248135  0.6249369540180314  0.5333736088121522   T   T   T
  0.1251008933950285  0.8752301244288258  0.5329050010420433   T   T   T
  0.3758914853514929  0.1244456479149661  0.5330426448026220   T   T   T
  0.3768612004167908  0.3746164237910725  0.5355105195788117   T   T   T
  0.3747078726131727  0.6270018852578566  0.5328042239394154   T   T   T
  0.3747423655985870  0.8753456571841834  0.5325608891794402   T   T   T
  0.6242003586648095  0.1265288212276531  0.5335285035364262   T   T   T
  0.6260466864566987  0.3746059238825460  0.5332847063999289   T   T   T
  0.6245109854496322  0.6247502290384972  0.5332901219988718   T   T   T
  0.6250806127229790  0.8752703248613933  0.5327221806793705   T   T   T
  0.8752639024829932  0.1251489993808617  0.5328447936209060   T   T   T
  0.8752847937249347  0.3751744815672842  0.5326954334050131   T   T   T
  0.8751521188560912  0.6249803277583701  0.5329189867039050   T   T   T
  0.8751767737421181  0.8751828633356767  0.5330264029426661   T   T   T
  0.0001080217202234  0.0002850180075555  0.5982644483471485   T   T   T
  0.9993514111209052  0.2502858598980267  0.5987271709480296   T   T   T
  0.9984887935727574  0.5000381351274458  0.5986930199523161   T   T   T
  0.9998073386384689  0.7504013454304214  0.5982403166148405   T   T   T
  0.2505695310643123  0.9999359433679799  0.5985389945535540   T   T   T
  0.2446988070092913  0.2464837262993859  0.6005441995654602   T   T   T
  0.2444061681584901  0.5062685605161945  0.6018824879823729   T   T   T
  0.2499471164624172  0.7523438830531849  0.5985820134899799   T   T   T
  0.5003807438351852  0.9985197530910569  0.5980297072328374   T   T   T
  0.5061007806058181  0.2460994142555585  0.6046175018814258   T   T   T
  0.5043465788991117  0.5074647917240781  0.6015360389158243   T   T   T
  0.4998504745027730  0.7527988623082871  0.5984987089423029   T   T   T
  0.7500758373694574  0.9999872545278146  0.5981760837516370   T   T   T
  0.7531601622546770  0.2497367610992200  0.5982850764350670   T   T   T
  0.7511009517895991  0.5001091211223728  0.5984710693360173   T   T   T
  0.7499830853207676  0.7503433394587248  0.5980972878875040   T   T   T
 
  0.00000000E+00  0.00000000E+00  0.00000000E+00
  0.00000000E+00  0.00000000E+00  0.00000000E+00
  0.00000000E+00  0.00000000E+00  0.00000000E+00
  0.00000000E+00  0.00000000E+00  0.00000000E+00
  0.00000000E+00  0.00000000E+00  0.00000000E+00
  0.00000000E+00  0.00000000E+00  0.00000000E+00
  0.00000000E+00  0.00000000E+00  0.00000000E+00
  0.00000000E+00  0.00000000E+00  0.00000000E+00
  0.00000000E+00  0.00000000E+00  0.00000000E+00
  0.00000000E+00  0.00000000E+00  0.00000000E+00
  0.00000000E+00  0.00000000E+00  0.00000000E+00
  0.00000000E+00  0.00000000E+00  0.00000000E+00
  0.00000000E+00  0.00000000E+00  0.00000000E+00
  0.00000000E+00  0.00000000E+00  0.00000000E+00
  0.00000000E+00  0.00000000E+00  0.00000000E+00
  0.00000000E+00  0.00000000E+00  0.00000000E+00
  0.00000000E+00  0.00000000E+00  0.00000000E+00
  0.00000000E+00  0.00000000E+00  0.00000000E+00
  0.00000000E+00  0.00000000E+00  0.00000000E+00
  0.00000000E+00  0.00000000E+00  0.00000000E+00
  0.00000000E+00  0.00000000E+00  0.00000000E+00
  0.00000000E+00  0.00000000E+00  0.00000000E+00
  0.00000000E+00  0.00000000E+00  0.00000000E+00
  0.00000000E+00  0.00000000E+00  0.00000000E+00
  0.00000000E+00  0.00000000E+00  0.00000000E+00
  0.00000000E+00  0.00000000E+00  0.00000000E+00
  0.00000000E+00  0.00000000E+00  0.00000000E+00
  0.00000000E+00  0.00000000E+00  0.00000000E+00
  0.00000000E+00  0.00000000E+00  0.00000000E+00
  0.00000000E+00  0.00000000E+00  0.00000000E+00
  0.00000000E+00  0.00000000E+00  0.00000000E+00
  0.00000000E+00  0.00000000E+00  0.00000000E+00
  0.00000000E+00  0.00000000E+00  0.00000000E+00
  0.00000000E+00  0.00000000E+00  0.00000000E+00
  0.00000000E+00  0.00000000E+00  0.00000000E+00
  0.00000000E+00  0.00000000E+00  0.00000000E+00
  0.00000000E+00  0.00000000E+00  0.00000000E+00
  0.00000000E+00  0.00000000E+00  0.00000000E+00
  0.00000000E+00  0.00000000E+00  0.00000000E+00
  0.00000000E+00  0.00000000E+00  0.00000000E+00
  0.00000000E+00  0.00000000E+00  0.00000000E+00
  0.00000000E+00  0.00000000E+00  0.00000000E+00
  0.00000000E+00  0.00000000E+00  0.00000000E+00
  0.00000000E+00  0.00000000E+00  0.00000000E+00
  0.00000000E+00  0.00000000E+00  0.00000000E+00
  0.00000000E+00  0.00000000E+00  0.00000000E+00
  0.00000000E+00  0.00000000E+00  0.00000000E+00
  0.00000000E+00  0.00000000E+00  0.00000000E+00
  0.00000000E+00  0.00000000E+00  0.00000000E+00
  0.00000000E+00  0.00000000E+00  0.00000000E+00
  0.00000000E+00  0.00000000E+00  0.00000000E+00
  0.00000000E+00  0.00000000E+00  0.00000000E+00
  0.00000000E+00  0.00000000E+00  0.00000000E+00
  0.00000000E+00  0.00000000E+00  0.00000000E+00
  0.00000000E+00  0.00000000E+00  0.00000000E+00
  0.00000000E+00  0.00000000E+00  0.00000000E+00
  0.00000000E+00  0.00000000E+00  0.00000000E+00
  0.00000000E+00  0.00000000E+00  0.00000000E+00
  0.00000000E+00  0.00000000E+00  0.00000000E+00
  0.00000000E+00  0.00000000E+00  0.00000000E+00
  0.00000000E+00  0.00000000E+00  0.00000000E+00
  0.00000000E+00  0.00000000E+00  0.00000000E+00
  0.00000000E+00  0.00000000E+00  0.00000000E+00
  0.00000000E+00  0.00000000E+00  0.00000000E+00
  0.00000000E+00  0.00000000E+00  0.00000000E+00
  0.00000000E+00  0.00000000E+00  0.00000000E+00
  0.00000000E+00  0.00000000E+00  0.00000000E+00
  0.00000000E+00  0.00000000E+00  0.00000000E+00
  0.00000000E+00  0.00000000E+00  0.00000000E+00
  0.00000000E+00  0.00000000E+00  0.00000000E+00
  0.00000000E+00  0.00000000E+00  0.00000000E+00
