Cu N O                                  
   1.00000000000000     
    10.0912000000000006    0.0000000000000000    0.0000000000000000
     0.0000000000000000   10.0912000000000006    0.0000000000000000
     0.0000000000000000    0.0000000000000000   30.0000000000000000
   Cu   N    O 
    64     1     2
Selective dynamics
Direct
  0.1249998119670011  0.1249998119670011  0.4104769008810010   F   F   F
  0.1249998119670011  0.3749994359000013  0.4104769008810010   F   F   F
  0.1249998119670011  0.6249990598330015  0.4104769008810010   F   F   F
  0.1249998119670011  0.8749986837660018  0.4104769008810010   F   F   F
  0.3749994359000013  0.1249998119670011  0.4104769008810010   F   F   F
  0.3749994359000013  0.3749994359000013  0.4104769008810010   F   F   F
  0.3749994359000013  0.6249990598330015  0.4104769008810010   F   F   F
  0.3749994359000013  0.8749986837660018  0.4104769008810010   F   F   F
  0.6249990598330015  0.1249998119670011  0.4104769008810010   F   F   F
  0.6249990598330015  0.3749994359000013  0.4104769008810010   F   F   F
  0.6249990598330015  0.6249990598330015  0.4104769008810010   F   F   F
  0.6249990598330015  0.8749986837660018  0.4104769008810010   F   F   F
  0.8749986837660018  0.1249998119670011  0.4104769008810010   F   F   F
  0.8749986837660018  0.3749994359000013  0.4104769008810010   F   F   F
  0.8749986837660018  0.6249990598330015  0.4104769008810010   F   F   F
  0.8749986837660018  0.8749986837660018  0.4104769008810010   F   F   F
 -0.0000115943939822  0.0000461305764551  0.4695145793327908   T   T   T
  0.0006933467322669  0.2506075469880703  0.4697444297036564   T   T   T
  0.0005358037322778  0.4999860014548071  0.4696608581513446   T   T   T
  0.0006540788170413  0.7494245686733388  0.4697197607429629   T   T   T
  0.2502020956548012  0.0000420578426775  0.4696934511729626   T   T   T
  0.2503043832244733  0.2505044061505050  0.4696884885029314   T   T   T
  0.2504626907449646  0.5000239999381882  0.4698061863410875   T   T   T
  0.2502807288744580  0.7495886637090714  0.4696713327689860   T   T   T
  0.4998793629012175  0.0000370513443657  0.4696868138549697   T   T   T
  0.4998565495613760  0.2504886542698944  0.4696820844534639   T   T   T
  0.4998052199182183  0.5000200552612637  0.4697968827312313   T   T   T
  0.4998813196568386  0.7495941236456424  0.4696654216050392   T   T   T
  0.7501092547168025  0.0000424100356004  0.4695159398162429   T   T   T
  0.7495290530748501  0.2505784774344679  0.4697298315342945   T   T   T
  0.7497985613175912  0.4999822943166077  0.4696462873881255   T   T   T
  0.7495698408124781  0.7494460314448335  0.4697054740417552   T   T   T
  0.1248936795575707  0.1252914076962096  0.5301106948096765   T   T   T
  0.1271370732077209  0.3765085102147550  0.5308820981046610   T   T   T
  0.1270166007948013  0.6236751498085870  0.5308204488320734   T   T   T
  0.1248599601207532  0.8748340706582149  0.5300936944854777   T   T   T
  0.3750914715707468  0.1255825294436173  0.5300902822933858   T   T   T
  0.3752984763457846  0.3768144505626992  0.5310827664689463   T   T   T
  0.3752957190087544  0.6234484458320300  0.5310150651811665   T   T   T
  0.3750931526102176  0.8746180494396674  0.5300814053086794   T   T   T
  0.6252943322729182  0.1252596084430692  0.5301002852925716   T   T   T
  0.6235512532594851  0.3764411683964657  0.5308190747754772   T   T   T
  0.6236702447262290  0.6237096235054355  0.5307588321546146   T   T   T
  0.6253351220858757  0.8748405627758006  0.5300825129138266   T   T   T
  0.8751054249430998  0.1247629424621857  0.5301175296451563   T   T   T
  0.8753296280286018  0.3746978890738595  0.5299511887480592   T   T   T
  0.8753301987064843  0.6252612890131720  0.5299432682323614   T   T   T
  0.8751084519840171  0.8752898110466749  0.5300793848266009   T   T   T
  0.0002913399963154  0.0000065117088396  0.5893078973592940   T   T   T
  0.0000777392447372  0.2501528802981516  0.5891947820515782   T   T   T
  0.9981819717444426  0.4999836391213944  0.5891478590389893   T   T   T
 -0.0000006313868187  0.7498902875541729  0.5891567861156187   T   T   T
  0.2503046233228511  0.0001301586072880  0.5893580779828654   T   T   T
  0.2501165367648013  0.2476106227623771  0.5892594595331889   T   T   T
  0.2483822934531002  0.5000438112067793  0.5929733013387873   T   T   T
  0.2500220179219109  0.7527736644663954  0.5891738620991224   T   T   T
  0.4998069016492539  0.0001115278310254  0.5893566476402385   T   T   T
  0.5002919982377512  0.2475838840937341  0.5892293425241969   T   T   T
  0.5032300180991216  0.5000055607830121  0.5927762851028281   T   T   T
  0.5003989206193286  0.7527654006796637  0.5891396964092381   T   T   T
  0.7498229228616634  0.9999968699084251  0.5893052428973564   T   T   T
  0.7503007710703566  0.2501358860757660  0.5891761118737378   T   T   T
  0.7531673050638573  0.4999695725175339  0.5891046033420946   T   T   T
  0.7503970586187476  0.7498893033077960  0.5891368587681383   T   T   T
  0.3773330253374327  0.5087688684844661  0.6812608831264820   T   T   T
  0.4851277346612216  0.5067174286521563  0.6594603382781145   T   T   T
  0.2692296075669368  0.5067540420894946  0.6596493802790129   T   T   T
 
  0.00000000E+00  0.00000000E+00  0.00000000E+00
  0.00000000E+00  0.00000000E+00  0.00000000E+00
  0.00000000E+00  0.00000000E+00  0.00000000E+00
  0.00000000E+00  0.00000000E+00  0.00000000E+00
  0.00000000E+00  0.00000000E+00  0.00000000E+00
  0.00000000E+00  0.00000000E+00  0.00000000E+00
  0.00000000E+00  0.00000000E+00  0.00000000E+00
  0.00000000E+00  0.00000000E+00  0.00000000E+00
  0.00000000E+00  0.00000000E+00  0.00000000E+00
  0.00000000E+00  0.00000000E+00  0.00000000E+00
  0.00000000E+00  0.00000000E+00  0.00000000E+00
  0.00000000E+00  0.00000000E+00  0.00000000E+00
  0.00000000E+00  0.00000000E+00  0.00000000E+00
  0.00000000E+00  0.00000000E+00  0.00000000E+00
  0.00000000E+00  0.00000000E+00  0.00000000E+00
  0.00000000E+00  0.00000000E+00  0.00000000E+00
  0.00000000E+00  0.00000000E+00  0.00000000E+00
  0.00000000E+00  0.00000000E+00  0.00000000E+00
  0.00000000E+00  0.00000000E+00  0.00000000E+00
  0.00000000E+00  0.00000000E+00  0.00000000E+00
  0.00000000E+00  0.00000000E+00  0.00000000E+00
  0.00000000E+00  0.00000000E+00  0.00000000E+00
  0.00000000E+00  0.00000000E+00  0.00000000E+00
  0.00000000E+00  0.00000000E+00  0.00000000E+00
  0.00000000E+00  0.00000000E+00  0.00000000E+00
  0.00000000E+00  0.00000000E+00  0.00000000E+00
  0.00000000E+00  0.00000000E+00  0.00000000E+00
  0.00000000E+00  0.00000000E+00  0.00000000E+00
  0.00000000E+00  0.00000000E+00  0.00000000E+00
  0.00000000E+00  0.00000000E+00  0.00000000E+00
  0.00000000E+00  0.00000000E+00  0.00000000E+00
  0.00000000E+00  0.00000000E+00  0.00000000E+00
  0.00000000E+00  0.00000000E+00  0.00000000E+00
  0.00000000E+00  0.00000000E+00  0.00000000E+00
  0.00000000E+00  0.00000000E+00  0.00000000E+00
  0.00000000E+00  0.00000000E+00  0.00000000E+00
  0.00000000E+00  0.00000000E+00  0.00000000E+00
  0.00000000E+00  0.00000000E+00  0.00000000E+00
  0.00000000E+00  0.00000000E+00  0.00000000E+00
  0.00000000E+00  0.00000000E+00  0.00000000E+00
  0.00000000E+00  0.00000000E+00  0.00000000E+00
  0.00000000E+00  0.00000000E+00  0.00000000E+00
  0.00000000E+00  0.00000000E+00  0.00000000E+00
  0.00000000E+00  0.00000000E+00  0.00000000E+00
  0.00000000E+00  0.00000000E+00  0.00000000E+00
  0.00000000E+00  0.00000000E+00  0.00000000E+00
  0.00000000E+00  0.00000000E+00  0.00000000E+00
  0.00000000E+00  0.00000000E+00  0.00000000E+00
  0.00000000E+00  0.00000000E+00  0.00000000E+00
  0.00000000E+00  0.00000000E+00  0.00000000E+00
  0.00000000E+00  0.00000000E+00  0.00000000E+00
  0.00000000E+00  0.00000000E+00  0.00000000E+00
  0.00000000E+00  0.00000000E+00  0.00000000E+00
  0.00000000E+00  0.00000000E+00  0.00000000E+00
  0.00000000E+00  0.00000000E+00  0.00000000E+00
  0.00000000E+00  0.00000000E+00  0.00000000E+00
  0.00000000E+00  0.00000000E+00  0.00000000E+00
  0.00000000E+00  0.00000000E+00  0.00000000E+00
  0.00000000E+00  0.00000000E+00  0.00000000E+00
  0.00000000E+00  0.00000000E+00  0.00000000E+00
  0.00000000E+00  0.00000000E+00  0.00000000E+00
  0.00000000E+00  0.00000000E+00  0.00000000E+00
  0.00000000E+00  0.00000000E+00  0.00000000E+00
  0.00000000E+00  0.00000000E+00  0.00000000E+00
  0.00000000E+00  0.00000000E+00  0.00000000E+00
  0.00000000E+00  0.00000000E+00  0.00000000E+00
  0.00000000E+00  0.00000000E+00  0.00000000E+00
