Cu N O
1.0
 10.091200000000   0.000000000000   0.000000000000
  0.000000000000  10.091200000000   0.000000000000
  0.000000000000   0.000000000000  30.000000000000
Cu N O
 64   1   1
Selective dynamics
Direct
  0.124933404221   0.124995680936   0.410379731740  F F F
  0.124933311069   0.374999538629   0.410382274775  F F F
  0.124933874482   0.625003089760   0.410379864641  F F F
  0.124932396236   0.874998552342   0.410376528539  F F F
  0.374931462206   0.124968270270   0.410322196876  F F F
  0.374928036979   0.374999549326   0.410321001443  F F F
  0.374931572315   0.625030483435   0.410322351616  F F F
  0.374937391262   0.874998565120   0.410331015813  F F F
  0.625070059346   0.124968444271   0.410322282490  F F F
  0.625074341563   0.374999508403   0.410320602036  F F F
  0.625070093609   0.625030663387   0.410322199544  F F F
  0.625063775494   0.874998889775   0.410330963516  F F F
  0.875069071911   0.124995439072   0.410379466211  F F F
  0.875070878731   0.374999495481   0.410381602760  F F F
  0.875069520955   0.625003758054   0.410379334105  F F F
  0.875068965466   0.874998911658   0.410376647425  F F F
  0.999836085541   0.999863729860   0.469638215889  F F F
  0.999954797395   0.250038565348   0.469637254397  F F F
  0.999956078295   0.500032795983   0.469632425642  F F F
  0.999833226729   0.750208440937   0.469641088822  F F F
  0.250367921565   0.000060859363   0.469759637446  F F F
  0.249917834983   0.249778611607   0.469392542820  F F F
  0.249917019819   0.500309030637   0.469396074548  F F F
  0.250368238750   0.750040087289   0.469754585480  F F F
  0.500001434571   0.000001996305   0.469711578886  F F F
  0.500089384975   0.249782681857   0.469550477265  F F F
  0.500088960965   0.500315268749   0.469549840816  F F F
  0.499999417904   0.750102849337   0.469716390166  F F F
  0.749577417235   0.000126026975   0.469777103236  F F F
  0.749743468373   0.250064052792   0.469651872693  F F F
  0.749748382645   0.500002901813   0.469655618138  F F F
  0.749574423554   0.749948471402   0.469771536434  F F F
  0.125088147891   0.124865078360   0.530094840689  F F F
  0.125626346008   0.375102464237   0.530180294494  F F F
  0.125084302665   0.625320854879   0.530095577639  F F F
  0.125070285618   0.875094657757   0.530319335436  F F F
  0.375996747110   0.126732659154   0.530539115386  F F F
  0.374585171698   0.375127353110   0.529268214601  F F F
  0.375968698513   0.623547558489   0.530531277295  F F F
  0.374917482790   0.875138087276   0.530191729187  F F F
  0.623703010683   0.126392057165   0.530657221898  F F F
  0.623128451392   0.375110369162   0.530227927056  F F F
  0.623725360646   0.623840556110   0.530647167324  F F F
  0.624811633299   0.875111951081   0.530250538644  F F F
  0.874910951431   0.124815010209   0.530105124658  F F F
  0.874915541916   0.375063085711   0.529997519824  F F F
  0.874920309099   0.625310714668   0.530103715558  F F F
  0.874830056988   0.875064753815   0.530372453932  F F F
  0.999958328795   0.000272192931   0.589565345606  F F F
  0.999888260453   0.250180243072   0.589403052073  F F F
  0.999896447192   0.499938844119   0.589404448547  F F F
  0.999952192913   0.749845537038   0.589568107525  F F F
  0.250148211741   0.999933226760   0.589513924857  F F F
  0.248447061264   0.249018648114   0.589323269558  F F F
  0.248463285766   0.501183783202   0.589324231201  F F F
  0.250145074397   0.750266782367   0.589514676248  F F F
  0.499845559863   0.998988316146   0.589709150785  F F F
  0.501571199231   0.245268893304   0.592477722972  F F F
  0.501575059567   0.505193811124   0.592451091749  F F F
  0.499839081353   0.751337163909   0.589707338969  F F F
  0.749702255514   0.000083893153   0.589559241160  F F F
  0.751310558753   0.249796053410   0.589122462748  F F F
  0.751311952433   0.500330711276   0.589115499919  F F F
  0.749689949045   0.750034842982   0.589557717623  F F F
  0.463655236934   0.375268873472   0.638095210105  T T T
  0.462590291096   0.375346068204   0.678436206819  T T T
