Cu N O                                  
   1.00000000000000     
    10.0912000000000006    0.0000000000000000    0.0000000000000000
     0.0000000000000000   10.0912000000000006    0.0000000000000000
     0.0000000000000000    0.0000000000000000   30.0000000000000000
   Cu   N    O 
    64     1     3
Selective dynamics
Direct
  0.1249998119670011  0.1249998119670011  0.4104769008810010   F   F   F
  0.1249998119670011  0.3749994359000013  0.4104769008810010   F   F   F
  0.1249998119670011  0.6249990598330015  0.4104769008810010   F   F   F
  0.1249998119670011  0.8749986837660018  0.4104769008810010   F   F   F
  0.3749994359000013  0.1249998119670011  0.4104769008810010   F   F   F
  0.3749994359000013  0.3749994359000013  0.4104769008810010   F   F   F
  0.3749994359000013  0.6249990598330015  0.4104769008810010   F   F   F
  0.3749994359000013  0.8749986837660018  0.4104769008810010   F   F   F
  0.6249990598330015  0.1249998119670011  0.4104769008810010   F   F   F
  0.6249990598330015  0.3749994359000013  0.4104769008810010   F   F   F
  0.6249990598330015  0.6249990598330015  0.4104769008810010   F   F   F
  0.6249990598330015  0.8749986837660018  0.4104769008810010   F   F   F
  0.8749986837660018  0.1249998119670011  0.4104769008810010   F   F   F
  0.8749986837660018  0.3749994359000013  0.4104769008810010   F   F   F
  0.8749986837660018  0.6249990598330015  0.4104769008810010   F   F   F
  0.8749986837660018  0.8749986837660018  0.4104769008810010   F   F   F
  0.0000234060310012  0.0000217502815424  0.4695390655884301   T   T   T
  0.0006181724941950  0.2504878920204529  0.4697604943677688   T   T   T
  0.0004907298896821  0.4999682629149894  0.4696820940134714   T   T   T
  0.0005688426667980  0.7495013648445918  0.4697357880834937   T   T   T
  0.2501495937331473  0.9999931719806455  0.4697119333555380   T   T   T
  0.2503439840968952  0.2505840086989309  0.4697287507637701   T   T   T
  0.2504114453287608  0.4999969479395872  0.4697248402574936   T   T   T
  0.2503157597679271  0.7494360221683802  0.4697089990972532   T   T   T
  0.4999242384550168  0.9999888135877170  0.4697020995141032   T   T   T
  0.4997781268505443  0.2505598922486526  0.4697158226469838   T   T   T
  0.4997659248031024  0.4999941820710858  0.4697058201979377   T   T   T
  0.4998153882212050  0.7494503138502193  0.4696965649900167   T   T   T
  0.7500787588080565  0.0000200048071417  0.4695372973381927   T   T   T
  0.7495669641916661  0.2504613637066801  0.4697477092834971   T   T   T
  0.7497715784354773  0.4999617824238931  0.4696679522044723   T   T   T
  0.7496144764998373  0.7495151963086971  0.4697256223567302   T   T   T
  0.1247690339998809  0.1251027432191377  0.5301105869025696   T   T   T
  0.1270538477317951  0.3764436636687096  0.5308838164780035   T   T   T
  0.1269319639665169  0.6236414671593656  0.5308269760844364   T   T   T
  0.1247432551326264  0.8748785267921041  0.5301025418130931   T   T   T
  0.3750737284768340  0.1253850301926561  0.5300702644416535   T   T   T
  0.3752142672208784  0.3769434862629580  0.5312042695580164   T   T   T
  0.3752196510599824  0.6231842820084056  0.5311382568411604   T   T   T
  0.3750815044124574  0.8745700485000997  0.5300842399836939   T   T   T
  0.6254010145430002  0.1250804601831211  0.5300972951837006   T   T   T
  0.6235073191455206  0.3763599947962532  0.5308190282131705   T   T   T
  0.6236254025152594  0.6236705954946303  0.5307658602202037   T   T   T
  0.6254458263143128  0.8748753046522656  0.5300862380296093   T   T   T
  0.8750890213832476  0.1247157386888348  0.5301735704460390   T   T   T
  0.8752439647108203  0.3746183222298607  0.5299593045724744   T   T   T
  0.8752480209857173  0.6252696176739362  0.5299545838326614   T   T   T
  0.8750916651231356  0.8752814050912926  0.5301351893169556   T   T   T
  0.0003193885535903  0.9999675944683099  0.5894046239773986   T   T   T
  0.0000087929498919  0.2500884063922117  0.5892055924402659   T   T   T
  0.9979003898862687  0.4999390075370397  0.5891556359871505   T   T   T
 -0.0000873392317538  0.7498861154785833  0.5891730313253430   T   T   T
  0.2502842211532748  0.0000168153319930  0.5894080437126572   T   T   T
  0.2499479792977790  0.2470888863006641  0.5891516672082009   T   T   T
  0.2480102946334246  0.4997551150253931  0.5927847039436357   T   T   T
  0.2498365857387733  0.7530411723495866  0.5890952693011112   T   T   T
  0.4998505300959958  0.9999832021980883  0.5894046216610402   T   T   T
  0.5003662555454084  0.2470393193573956  0.5891145814889589   T   T   T
  0.5032124092569992  0.4997170056326455  0.5925723064231067   T   T   T
  0.5005266525575143  0.7530276472646074  0.5890512965128514   T   T   T
  0.7497985535689982  0.9999571252319972  0.5893979303923924   T   T   T
  0.7502788631437544  0.2500653609055420  0.5891838077215877   T   T   T
  0.7531346987871276  0.4999215338121573  0.5891046545637634   T   T   T
  0.7504099491505702  0.7498880728616022  0.5891510913092377   T   T   T
  0.3773645842587575  0.5108546780276251  0.6808823302995726   T   T   T
  0.4886190964060423  0.5074357242208767  0.6589219844943106   T   T   T
  0.2656948250700266  0.5082447761740353  0.6591786682795463   T   T   T
  0.3778108044509056  0.5168069149081280  0.7216977511056031   T   T   T
 
  0.00000000E+00  0.00000000E+00  0.00000000E+00
  0.00000000E+00  0.00000000E+00  0.00000000E+00
  0.00000000E+00  0.00000000E+00  0.00000000E+00
  0.00000000E+00  0.00000000E+00  0.00000000E+00
  0.00000000E+00  0.00000000E+00  0.00000000E+00
  0.00000000E+00  0.00000000E+00  0.00000000E+00
  0.00000000E+00  0.00000000E+00  0.00000000E+00
  0.00000000E+00  0.00000000E+00  0.00000000E+00
  0.00000000E+00  0.00000000E+00  0.00000000E+00
  0.00000000E+00  0.00000000E+00  0.00000000E+00
  0.00000000E+00  0.00000000E+00  0.00000000E+00
  0.00000000E+00  0.00000000E+00  0.00000000E+00
  0.00000000E+00  0.00000000E+00  0.00000000E+00
  0.00000000E+00  0.00000000E+00  0.00000000E+00
  0.00000000E+00  0.00000000E+00  0.00000000E+00
  0.00000000E+00  0.00000000E+00  0.00000000E+00
  0.00000000E+00  0.00000000E+00  0.00000000E+00
  0.00000000E+00  0.00000000E+00  0.00000000E+00
  0.00000000E+00  0.00000000E+00  0.00000000E+00
  0.00000000E+00  0.00000000E+00  0.00000000E+00
  0.00000000E+00  0.00000000E+00  0.00000000E+00
  0.00000000E+00  0.00000000E+00  0.00000000E+00
  0.00000000E+00  0.00000000E+00  0.00000000E+00
  0.00000000E+00  0.00000000E+00  0.00000000E+00
  0.00000000E+00  0.00000000E+00  0.00000000E+00
  0.00000000E+00  0.00000000E+00  0.00000000E+00
  0.00000000E+00  0.00000000E+00  0.00000000E+00
  0.00000000E+00  0.00000000E+00  0.00000000E+00
  0.00000000E+00  0.00000000E+00  0.00000000E+00
  0.00000000E+00  0.00000000E+00  0.00000000E+00
  0.00000000E+00  0.00000000E+00  0.00000000E+00
  0.00000000E+00  0.00000000E+00  0.00000000E+00
  0.00000000E+00  0.00000000E+00  0.00000000E+00
  0.00000000E+00  0.00000000E+00  0.00000000E+00
  0.00000000E+00  0.00000000E+00  0.00000000E+00
  0.00000000E+00  0.00000000E+00  0.00000000E+00
  0.00000000E+00  0.00000000E+00  0.00000000E+00
  0.00000000E+00  0.00000000E+00  0.00000000E+00
  0.00000000E+00  0.00000000E+00  0.00000000E+00
  0.00000000E+00  0.00000000E+00  0.00000000E+00
  0.00000000E+00  0.00000000E+00  0.00000000E+00
  0.00000000E+00  0.00000000E+00  0.00000000E+00
  0.00000000E+00  0.00000000E+00  0.00000000E+00
  0.00000000E+00  0.00000000E+00  0.00000000E+00
  0.00000000E+00  0.00000000E+00  0.00000000E+00
  0.00000000E+00  0.00000000E+00  0.00000000E+00
  0.00000000E+00  0.00000000E+00  0.00000000E+00
  0.00000000E+00  0.00000000E+00  0.00000000E+00
  0.00000000E+00  0.00000000E+00  0.00000000E+00
  0.00000000E+00  0.00000000E+00  0.00000000E+00
  0.00000000E+00  0.00000000E+00  0.00000000E+00
  0.00000000E+00  0.00000000E+00  0.00000000E+00
  0.00000000E+00  0.00000000E+00  0.00000000E+00
  0.00000000E+00  0.00000000E+00  0.00000000E+00
  0.00000000E+00  0.00000000E+00  0.00000000E+00
  0.00000000E+00  0.00000000E+00  0.00000000E+00
  0.00000000E+00  0.00000000E+00  0.00000000E+00
  0.00000000E+00  0.00000000E+00  0.00000000E+00
  0.00000000E+00  0.00000000E+00  0.00000000E+00
  0.00000000E+00  0.00000000E+00  0.00000000E+00
  0.00000000E+00  0.00000000E+00  0.00000000E+00
  0.00000000E+00  0.00000000E+00  0.00000000E+00
  0.00000000E+00  0.00000000E+00  0.00000000E+00
  0.00000000E+00  0.00000000E+00  0.00000000E+00
  0.00000000E+00  0.00000000E+00  0.00000000E+00
  0.00000000E+00  0.00000000E+00  0.00000000E+00
  0.00000000E+00  0.00000000E+00  0.00000000E+00
  0.00000000E+00  0.00000000E+00  0.00000000E+00
