N O Pd                                  
   1.00000000000000     
    10.9819999999999993    0.0000000000000000    0.0000000000000000
     0.0000000000000000   10.9819999999999993    0.0000000000000000
     0.0000000000000000    0.0000000000000000   30.0000000000000000
   N    O    Pd
     9     8    64
Selective dynamics
Direct
  0.4332644823115501  0.4008344679657299  0.6445862631344852   T   T   T
  0.3951674822032274  0.9253608567674974  0.6427594225900677   T   T   T
  0.7560353776883062  0.3720527217637155  0.6500321212399314   T   T   T
  0.9039735347306888  0.9133312773594113  0.6433014347675297   T   T   T
  0.5974980998138335  0.6728790141669023  0.6432194623352530   T   T   T
  0.6579386835248044  0.0913272631715571  0.6448346513751062   T   T   T
  0.1248413817876468  0.7398254704300840  0.6497777321966538   T   T   T
  0.1200692890059898  0.2765596161779769  0.6480594656019676   T   T   T
  0.1245714599550567  0.4631724992732771  0.6416671220956047   T   T   T
  0.4425207692709563  0.3943516362635435  0.6845016609210433   T   T   T
  0.3873898442254671  0.9259830958222324  0.6829136723309617   T   T   T
  0.7352313358762999  0.3820745801226124  0.6888616108761667   T   T   T
  0.9108611305609742  0.9251462848239029  0.6832578453978257   T   T   T
  0.6026824232249481  0.6760566121999645  0.6834678543206678   T   T   T
  0.6578362922438004  0.0867443089396787  0.6850307265049764   T   T   T
  0.1364277631451785  0.7687782503450791  0.6877922327978325   T   T   T
  0.1186968989400725  0.2377409818050324  0.6854358311740469   T   T   T
  0.1249995473439967  0.1249995473439967  0.4029322681199972   F   F   F
  0.1249995473439967  0.3749986420319971  0.4029322681199972   F   F   F
  0.1249995473439967  0.6249977367199975  0.4029322681199972   F   F   F
  0.1249995473439967  0.8749968314079979  0.4029322681199972   F   F   F
  0.3749986420319971  0.1249995473439967  0.4029322681199972   F   F   F
  0.3749986420319971  0.3749986420319971  0.4029322681199972   F   F   F
  0.3749986420319971  0.6249977367199975  0.4029322681199972   F   F   F
  0.3749986420319971  0.8749968314079979  0.4029322681199972   F   F   F
  0.6249977367199975  0.1249995473439967  0.4029322681199972   F   F   F
  0.6249977367199975  0.3749986420319971  0.4029322681199972   F   F   F
  0.6249977367199975  0.6249977367199975  0.4029322681199972   F   F   F
  0.6249977367199975  0.8749968314079979  0.4029322681199972   F   F   F
  0.8749968314079979  0.1249995473439967  0.4029322681199972   F   F   F
  0.8749968314079979  0.3749986420319971  0.4029322681199972   F   F   F
  0.8749968314079979  0.6249977367199975  0.4029322681199972   F   F   F
  0.8749968314079979  0.8749968314079979  0.4029322681199972   F   F   F
  0.9990799664051053  0.9987260483412044  0.4683410746691195   T   T   T
  0.0003282541042608  0.2489183625125975  0.4681653348335431   T   T   T
  0.9994254727022636  0.5001413513875406  0.4683350516297793   T   T   T
  0.9984804646692993  0.7487307558054326  0.4682451654310142   T   T   T
  0.2512539319132330  0.0008576951448944  0.4678324376623024   T   T   T
  0.2500035798805129  0.2505191131126381  0.4680389862635579   T   T   T
  0.2495327275388846  0.5015273508658993  0.4681363473050268   T   T   T
  0.2489202079747628  0.7499602465871362  0.4681565333825262   T   T   T
  0.5009871438772464  0.0024624232369774  0.4683977097767098   T   T   T
  0.4999823847455005  0.2518602928114717  0.4682367765124482   T   T   T
  0.4998104791875804  0.5025115340381134  0.4679436136922135   T   T   T
  0.4992407342400753  0.7522276557523000  0.4681996705737674   T   T   T
  0.7501714336062477  0.9998571059347157  0.4684403218698705   T   T   T
  0.7501434263116664  0.2497107625802215  0.4679630219352973   T   T   T
  0.7508777621286171  0.5000260103320997  0.4681673344090527   T   T   T
  0.7497420543179274  0.7498404995611025  0.4681898940790319   T   T   T
  0.1268730008137382  0.1204690528926378  0.5333455951249704   T   T   T
  0.1253284978215277  0.3741695431282750  0.5327996291909258   T   T   T
  0.1227471263062441  0.6254688399188879  0.5338104748230421   T   T   T
  0.1248707809986698  0.8747160999131083  0.5327853291527092   T   T   T
  0.3768564508053132  0.1299257265231617  0.5340431247904149   T   T   T
  0.3741803504059433  0.3813579984497295  0.5330020273380995   T   T   T
  0.3732888444172033  0.6289266472139374  0.5345264468647173   T   T   T
  0.3753732514634933  0.8776623529431973  0.5331214151480026   T   T   T
  0.6266852585288945  0.1291630623365521  0.5345583786871160   T   T   T
  0.6251927197013813  0.3776704781508826  0.5331715782982869   T   T   T
  0.6239563125948209  0.6265496988908836  0.5330985946158648   T   T   T
  0.6245619396184097  0.8782322037053305  0.5335278570018076   T   T   T
  0.8743720584864647  0.1246831826437500  0.5338516827700985   T   T   T
  0.8740254636592582  0.3717655827130528  0.5335362861553179   T   T   T
  0.8739206125130465  0.6226075832805975  0.5359212586074023   T   T   T
  0.8733368018056780  0.8698925298758908  0.5345498815087311   T   T   T
  0.0099768591682263  0.0031304734255073  0.5998906784906879   T   T   T
  0.9941113295430526  0.2464307000976831  0.6000691159785063   T   T   T
  0.0044548769938046  0.4996400725050876  0.6001653878776594   T   T   T
  0.9845879580610770  0.7560649056061663  0.6066944497781179   T   T   T
  0.2617471278471939  0.9925289523683745  0.6017222888887162   T   T   T
  0.2457023967853473  0.2398710262570063  0.6004196538750506   T   T   T
  0.2601832635852972  0.4917497563787592  0.6043320637273482   T   T   T
  0.2414612928264148  0.7447969640436725  0.6007512414025697   T   T   T
  0.5141437292794322  0.0231941320267808  0.6036903895961885   T   T   T
  0.4895161937578578  0.2710751280296151  0.6014133683337022   T   T   T
  0.5116050934204281  0.5240954153742123  0.6031665523125511   T   T   T
  0.4843911600592463  0.7737237914519000  0.6036743293282996   T   T   T
  0.7611602719004580  0.9862303306889189  0.6028266816097698   T   T   T
  0.7393341846774533  0.2377360139833442  0.6059081955070269   T   T   T
  0.7592108395360171  0.4921635750636426  0.6022746435661617   T   T   T
  0.7339311600923395  0.7380422989669668  0.6025466544126559   T   T   T
 
  0.00000000E+00  0.00000000E+00  0.00000000E+00
  0.00000000E+00  0.00000000E+00  0.00000000E+00
  0.00000000E+00  0.00000000E+00  0.00000000E+00
  0.00000000E+00  0.00000000E+00  0.00000000E+00
  0.00000000E+00  0.00000000E+00  0.00000000E+00
  0.00000000E+00  0.00000000E+00  0.00000000E+00
  0.00000000E+00  0.00000000E+00  0.00000000E+00
  0.00000000E+00  0.00000000E+00  0.00000000E+00
  0.00000000E+00  0.00000000E+00  0.00000000E+00
  0.00000000E+00  0.00000000E+00  0.00000000E+00
  0.00000000E+00  0.00000000E+00  0.00000000E+00
  0.00000000E+00  0.00000000E+00  0.00000000E+00
  0.00000000E+00  0.00000000E+00  0.00000000E+00
  0.00000000E+00  0.00000000E+00  0.00000000E+00
  0.00000000E+00  0.00000000E+00  0.00000000E+00
  0.00000000E+00  0.00000000E+00  0.00000000E+00
  0.00000000E+00  0.00000000E+00  0.00000000E+00
  0.00000000E+00  0.00000000E+00  0.00000000E+00
  0.00000000E+00  0.00000000E+00  0.00000000E+00
  0.00000000E+00  0.00000000E+00  0.00000000E+00
  0.00000000E+00  0.00000000E+00  0.00000000E+00
  0.00000000E+00  0.00000000E+00  0.00000000E+00
  0.00000000E+00  0.00000000E+00  0.00000000E+00
  0.00000000E+00  0.00000000E+00  0.00000000E+00
  0.00000000E+00  0.00000000E+00  0.00000000E+00
  0.00000000E+00  0.00000000E+00  0.00000000E+00
  0.00000000E+00  0.00000000E+00  0.00000000E+00
  0.00000000E+00  0.00000000E+00  0.00000000E+00
  0.00000000E+00  0.00000000E+00  0.00000000E+00
  0.00000000E+00  0.00000000E+00  0.00000000E+00
  0.00000000E+00  0.00000000E+00  0.00000000E+00
  0.00000000E+00  0.00000000E+00  0.00000000E+00
  0.00000000E+00  0.00000000E+00  0.00000000E+00
  0.00000000E+00  0.00000000E+00  0.00000000E+00
  0.00000000E+00  0.00000000E+00  0.00000000E+00
  0.00000000E+00  0.00000000E+00  0.00000000E+00
  0.00000000E+00  0.00000000E+00  0.00000000E+00
  0.00000000E+00  0.00000000E+00  0.00000000E+00
  0.00000000E+00  0.00000000E+00  0.00000000E+00
  0.00000000E+00  0.00000000E+00  0.00000000E+00
  0.00000000E+00  0.00000000E+00  0.00000000E+00
  0.00000000E+00  0.00000000E+00  0.00000000E+00
  0.00000000E+00  0.00000000E+00  0.00000000E+00
  0.00000000E+00  0.00000000E+00  0.00000000E+00
  0.00000000E+00  0.00000000E+00  0.00000000E+00
  0.00000000E+00  0.00000000E+00  0.00000000E+00
  0.00000000E+00  0.00000000E+00  0.00000000E+00
  0.00000000E+00  0.00000000E+00  0.00000000E+00
  0.00000000E+00  0.00000000E+00  0.00000000E+00
  0.00000000E+00  0.00000000E+00  0.00000000E+00
  0.00000000E+00  0.00000000E+00  0.00000000E+00
  0.00000000E+00  0.00000000E+00  0.00000000E+00
  0.00000000E+00  0.00000000E+00  0.00000000E+00
  0.00000000E+00  0.00000000E+00  0.00000000E+00
  0.00000000E+00  0.00000000E+00  0.00000000E+00
  0.00000000E+00  0.00000000E+00  0.00000000E+00
  0.00000000E+00  0.00000000E+00  0.00000000E+00
  0.00000000E+00  0.00000000E+00  0.00000000E+00
  0.00000000E+00  0.00000000E+00  0.00000000E+00
  0.00000000E+00  0.00000000E+00  0.00000000E+00
  0.00000000E+00  0.00000000E+00  0.00000000E+00
  0.00000000E+00  0.00000000E+00  0.00000000E+00
  0.00000000E+00  0.00000000E+00  0.00000000E+00
  0.00000000E+00  0.00000000E+00  0.00000000E+00
  0.00000000E+00  0.00000000E+00  0.00000000E+00
  0.00000000E+00  0.00000000E+00  0.00000000E+00
  0.00000000E+00  0.00000000E+00  0.00000000E+00
  0.00000000E+00  0.00000000E+00  0.00000000E+00
  0.00000000E+00  0.00000000E+00  0.00000000E+00
  0.00000000E+00  0.00000000E+00  0.00000000E+00
  0.00000000E+00  0.00000000E+00  0.00000000E+00
  0.00000000E+00  0.00000000E+00  0.00000000E+00
  0.00000000E+00  0.00000000E+00  0.00000000E+00
  0.00000000E+00  0.00000000E+00  0.00000000E+00
  0.00000000E+00  0.00000000E+00  0.00000000E+00
  0.00000000E+00  0.00000000E+00  0.00000000E+00
  0.00000000E+00  0.00000000E+00  0.00000000E+00
  0.00000000E+00  0.00000000E+00  0.00000000E+00
  0.00000000E+00  0.00000000E+00  0.00000000E+00
  0.00000000E+00  0.00000000E+00  0.00000000E+00
  0.00000000E+00  0.00000000E+00  0.00000000E+00
