Pd N O                                  
   1.00000000000000     
    10.9819999999999993    0.0000000000000000    0.0000000000000000
     0.0000000000000000   10.9819999999999993    0.0000000000000000
     0.0000000000000000    0.0000000000000000   30.0000000000000000
   Pd   N    O 
    64     1     1
Selective dynamics
Direct
  0.1249995473439967  0.1249995473439967  0.4029322681199972   F   F   F
  0.1249995473439967  0.3749986420319971  0.4029322681199972   F   F   F
  0.1249995473439967  0.6249977367199975  0.4029322681199972   F   F   F
  0.1249995473439967  0.8749968314079979  0.4029322681199972   F   F   F
  0.3749986420319971  0.1249995473439967  0.4029322681199972   F   F   F
  0.3749986420319971  0.3749986420319971  0.4029322681199972   F   F   F
  0.3749986420319971  0.6249977367199975  0.4029322681199972   F   F   F
  0.3749986420319971  0.8749968314079979  0.4029322681199972   F   F   F
  0.6249977367199975  0.1249995473439967  0.4029322681199972   F   F   F
  0.6249977367199975  0.3749986420319971  0.4029322681199972   F   F   F
  0.6249977367199975  0.6249977367199975  0.4029322681199972   F   F   F
  0.6249977367199975  0.8749968314079979  0.4029322681199972   F   F   F
  0.8749968314079979  0.1249995473439967  0.4029322681199972   F   F   F
  0.8749968314079979  0.3749986420319971  0.4029322681199972   F   F   F
  0.8749968314079979  0.6249977367199975  0.4029322681199972   F   F   F
  0.8749968314079979  0.8749968314079979  0.4029322681199972   F   F   F
  0.0000376501942591  0.0000344421543069  0.4680264298640021   T   T   T
  0.0000990095747458  0.2496673857961311  0.4680054126711691   T   T   T
  0.0001007593644372  0.5003332353199711  0.4680055154049917   T   T   T
  0.0000364706360738  0.7499678319566764  0.4680253204646547   T   T   T
  0.2496681869203729  0.0000867730285429  0.4680037946561160   T   T   T
  0.2497583472799617  0.2497497172206813  0.4679365243703594   T   T   T
  0.2497600543300789  0.5002564934123825  0.4679361197466397   T   T   T
  0.2496659331438538  0.7499256237899320  0.4680025382063754   T   T   T
  0.5003394428865933  0.0000894375078391  0.4680042265579897   T   T   T
  0.5002667802036901  0.2497512912842786  0.4679365772381451   T   T   T
  0.5002681066866207  0.5002579209420186  0.4679369236227722   T   T   T
  0.5003431393638611  0.7499242716325911  0.4680031665223476   T   T   T
  0.7499764306449762  0.0000294862564110  0.4680226220329316   T   T   T
  0.7499400774783500  0.2496612401131674  0.4680017592764617   T   T   T
  0.7499402006587067  0.5003406626101319  0.4680019383704486   T   T   T
  0.7499789138029607  0.7499732429432862  0.4680215413715533   T   T   T
  0.1262447935093272  0.1262354408418117  0.5335076575177239   T   T   T
  0.1244673605686996  0.3750044491283411  0.5328079553869896   T   T   T
  0.1262436702087195  0.6237813167816851  0.5335057674295779   T   T   T
  0.1249701010714185  0.8750054132114261  0.5329153908688405   T   T   T
  0.3750177878774272  0.1244371191855066  0.5328032064434954   T   T   T
  0.3750345474283240  0.3750127273224033  0.5316184898066937   T   T   T
  0.3750212067391847  0.6255941526257000  0.5327973367202344   T   T   T
  0.3750037315605254  0.8750202866645520  0.5328136912034490   T   T   T
  0.6238013684663026  0.1262230057811321  0.5335033865056236   T   T   T
  0.6256276358151135  0.3750071629823341  0.5327930274996512   T   T   T
  0.6238051720264852  0.6237924119838476  0.5335020805598205   T   T   T
  0.6250382563500008  0.8750084429151894  0.5329127888563661   T   T   T
  0.8750244946390929  0.1249667896696145  0.5329142454588788   T   T   T
  0.8750506783071399  0.3749999758239088  0.5328135955872375   T   T   T
  0.8750271807794768  0.6250355109161112  0.5329136936099028   T   T   T
  0.8750046429873146  0.8750003692321171  0.5328937377425003   T   T   T
 -0.0000135180444350 -0.0000182731525749  0.5979884026866619   T   T   T
  0.9997706791739269  0.2500677169947860  0.5981543422494139   T   T   T
  0.9997733007936535  0.4999362467316335  0.5981541136397004   T   T   T
 -0.0000134802607394  0.7500234452089919  0.5979885993914230   T   T   T
  0.2500753954436403  0.9997310880239545  0.5981543091483046   T   T   T
  0.2508613553822158  0.2508179566730817  0.5997837745994458   T   T   T
  0.2508519936405577  0.4992370517227676  0.5997784618562586   T   T   T
  0.2500769257873398  0.7503135941060710  0.5981525636108810   T   T   T
  0.4999430759934546  0.9997317525626861  0.5981521675144688   T   T   T
  0.4992840176381694  0.2508038696282678  0.5997712844278874   T   T   T
  0.4992971821372137  0.4992496176490736  0.5997686368336319   T   T   T
  0.4999403169288811  0.7503150979846007  0.5981495396143156   T   T   T
  0.7500322491540082 -0.0000210157192159  0.5979884043379893   T   T   T
  0.7503569435501919  0.2500730348434537  0.5981482844366824   T   T   T
  0.7503603535061151  0.4999324338473258  0.5981478752149375   T   T   T
  0.7500351707394727  0.7500264577435739  0.5979886121966852   T   T   T
  0.3754574639308897  0.3751678814836023  0.6346297968917421   T   T   T
  0.3756441331874686  0.3752405477796216  0.6753865892029013   T   T   T
 
  0.00000000E+00  0.00000000E+00  0.00000000E+00
  0.00000000E+00  0.00000000E+00  0.00000000E+00
  0.00000000E+00  0.00000000E+00  0.00000000E+00
  0.00000000E+00  0.00000000E+00  0.00000000E+00
  0.00000000E+00  0.00000000E+00  0.00000000E+00
  0.00000000E+00  0.00000000E+00  0.00000000E+00
  0.00000000E+00  0.00000000E+00  0.00000000E+00
  0.00000000E+00  0.00000000E+00  0.00000000E+00
  0.00000000E+00  0.00000000E+00  0.00000000E+00
  0.00000000E+00  0.00000000E+00  0.00000000E+00
  0.00000000E+00  0.00000000E+00  0.00000000E+00
  0.00000000E+00  0.00000000E+00  0.00000000E+00
  0.00000000E+00  0.00000000E+00  0.00000000E+00
  0.00000000E+00  0.00000000E+00  0.00000000E+00
  0.00000000E+00  0.00000000E+00  0.00000000E+00
  0.00000000E+00  0.00000000E+00  0.00000000E+00
  0.00000000E+00  0.00000000E+00  0.00000000E+00
  0.00000000E+00  0.00000000E+00  0.00000000E+00
  0.00000000E+00  0.00000000E+00  0.00000000E+00
  0.00000000E+00  0.00000000E+00  0.00000000E+00
  0.00000000E+00  0.00000000E+00  0.00000000E+00
  0.00000000E+00  0.00000000E+00  0.00000000E+00
  0.00000000E+00  0.00000000E+00  0.00000000E+00
  0.00000000E+00  0.00000000E+00  0.00000000E+00
  0.00000000E+00  0.00000000E+00  0.00000000E+00
  0.00000000E+00  0.00000000E+00  0.00000000E+00
  0.00000000E+00  0.00000000E+00  0.00000000E+00
  0.00000000E+00  0.00000000E+00  0.00000000E+00
  0.00000000E+00  0.00000000E+00  0.00000000E+00
  0.00000000E+00  0.00000000E+00  0.00000000E+00
  0.00000000E+00  0.00000000E+00  0.00000000E+00
  0.00000000E+00  0.00000000E+00  0.00000000E+00
  0.00000000E+00  0.00000000E+00  0.00000000E+00
  0.00000000E+00  0.00000000E+00  0.00000000E+00
  0.00000000E+00  0.00000000E+00  0.00000000E+00
  0.00000000E+00  0.00000000E+00  0.00000000E+00
  0.00000000E+00  0.00000000E+00  0.00000000E+00
  0.00000000E+00  0.00000000E+00  0.00000000E+00
  0.00000000E+00  0.00000000E+00  0.00000000E+00
  0.00000000E+00  0.00000000E+00  0.00000000E+00
  0.00000000E+00  0.00000000E+00  0.00000000E+00
  0.00000000E+00  0.00000000E+00  0.00000000E+00
  0.00000000E+00  0.00000000E+00  0.00000000E+00
  0.00000000E+00  0.00000000E+00  0.00000000E+00
  0.00000000E+00  0.00000000E+00  0.00000000E+00
  0.00000000E+00  0.00000000E+00  0.00000000E+00
  0.00000000E+00  0.00000000E+00  0.00000000E+00
  0.00000000E+00  0.00000000E+00  0.00000000E+00
  0.00000000E+00  0.00000000E+00  0.00000000E+00
  0.00000000E+00  0.00000000E+00  0.00000000E+00
  0.00000000E+00  0.00000000E+00  0.00000000E+00
  0.00000000E+00  0.00000000E+00  0.00000000E+00
  0.00000000E+00  0.00000000E+00  0.00000000E+00
  0.00000000E+00  0.00000000E+00  0.00000000E+00
  0.00000000E+00  0.00000000E+00  0.00000000E+00
  0.00000000E+00  0.00000000E+00  0.00000000E+00
  0.00000000E+00  0.00000000E+00  0.00000000E+00
  0.00000000E+00  0.00000000E+00  0.00000000E+00
  0.00000000E+00  0.00000000E+00  0.00000000E+00
  0.00000000E+00  0.00000000E+00  0.00000000E+00
  0.00000000E+00  0.00000000E+00  0.00000000E+00
  0.00000000E+00  0.00000000E+00  0.00000000E+00
  0.00000000E+00  0.00000000E+00  0.00000000E+00
  0.00000000E+00  0.00000000E+00  0.00000000E+00
  0.00000000E+00  0.00000000E+00  0.00000000E+00
  0.00000000E+00  0.00000000E+00  0.00000000E+00
