Cu N O H                                
   1.00000000000000     
    10.0912000000000006    0.0000000000000000    0.0000000000000000
     0.0000000000000000   10.0912000000000006    0.0000000000000000
     0.0000000000000000    0.0000000000000000   30.0000000000000000
   Cu   N    O    H 
    64     1     1     1
Selective dynamics
Direct
  0.1248843476329995  0.1249781114049995  0.4100999289290002   F   F   F
  0.1248820817669980  0.3749993845690014  0.4100963293560014   F   F   F
  0.1248846154130021  0.6250217037890025  0.4100994129220012   F   F   F
  0.1248847007929967  0.8749997787549972  0.4100980171949971   F   F   F
  0.3749711327609972  0.1249474928520016  0.4100110451500001   F   F   F
  0.3749748049130019  0.3749992207919988  0.4099962767810013   F   F   F
  0.3749712271189978  0.6250522804679974  0.4100104268639981   F   F   F
  0.3749682305410005  0.8749998391930021  0.4100234098360005   F   F   F
  0.6251520967480033  0.1249638216020017  0.4100505147849987   F   F   F
  0.6251620013419981  0.3749992352259994  0.4100430475590002   F   F   F
  0.6251523194979995  0.6250362426250007  0.4100497155880021   F   F   F
  0.6251435256500031  0.8750001575640027  0.4100548513680025   F   F   F
  0.8750699208800015  0.1249951116850028  0.4101395637270002   F   F   F
  0.8750717720069972  0.3749993155660007  0.4101422706030036   F   F   F
  0.8750702663599981  0.6250049380640021  0.4101388631570018   F   F   F
  0.8750691354330016  0.8750000957000026  0.4101297140540012   F   F   F
  0.0003909655358214  0.9999399959149997  0.4693618424749673   T   T   T
  0.0002760461777029  0.2498269418918824  0.4692767917060152   T   T   T
  0.0002828393327690  0.5001713882185044  0.4692729427046771   T   T   T
  0.0003913761432344  0.7500530520154456  0.4693648773917829   T   T   T
  0.2505525672180511  0.0000082296549806  0.4695482009290615   T   T   T
  0.2504537929399646  0.2496545889825015  0.4692355828339103   T   T   T
  0.2504523513524433  0.5003282951788321  0.4692463389770509   T   T   T
  0.2505599563132748  0.7499764224430621  0.4695443506918267   T   T   T
  0.4997918115457125  0.0000618790801781  0.4695632295431977   T   T   T
  0.5004130040008619  0.2495486489607188  0.4691994735981240   T   T   T
  0.5004141431271520  0.5004386727657177  0.4691946322396632   T   T   T
  0.4997890213603142  0.7499215416712630  0.4695648031460209   T   T   T
  0.7498332515337651  0.9998327449190256  0.4694175893945882   T   T   T
  0.7499824337032379  0.2500149793041189  0.4693519650242095   T   T   T
  0.7499847111280644  0.4999801281934211  0.4693566275934060   T   T   T
  0.7498307136926101  0.7501618011898330  0.4694138276135931   T   T   T
  0.1260040204785540  0.1252045062586546  0.5299883945452351   T   T   T
  0.1262216648054064  0.3749939240165716  0.5294123332956246   T   T   T
  0.1260186831054924  0.6247674473132747  0.5299925418907705   T   T   T
  0.1252061004357685  0.8749912902969825  0.5300071954818151   T   T   T
  0.3761489330070660  0.1275727378159175  0.5307922689119522   T   T   T
  0.3764858010709062  0.3749867110221601  0.5290149337299894   T   T   T
  0.3761570058259025  0.6223977372694023  0.5307971055888743   T   T   T
  0.3751646374542332  0.8749831243196056  0.5299927940620961   T   T   T
  0.6247825075631894  0.1259476021700081  0.5302611943318922   T   T   T
  0.6241554826214113  0.3749842846410232  0.5300248051069119   T   T   T
  0.6247904679858323  0.6240159289518417  0.5302618176955605   T   T   T
  0.6250556237812717  0.8749824879115735  0.5300210703814727   T   T   T
  0.8757483416820548  0.1243391642575844  0.5296231001301592   T   T   T
  0.8758874608612857  0.3749991847134879  0.5294197140743222   T   T   T
  0.8757561430848426  0.6256495024463433  0.5296240658628690   T   T   T
  0.8750644706322888  0.8749965553214309  0.5301234694972976   T   T   T
  0.0004294144204096  0.0001899087289630  0.5892672606193869   T   T   T
  0.9998405505530386  0.2500459174311729  0.5890329916327630   T   T   T
  0.9998462487353237  0.4999474933977055  0.5890343519952381   T   T   T
  0.0004450636547233  0.7498032354762998  0.5892650499952765   T   T   T
  0.2501156818587944  0.9998994960894478  0.5892995866506112   T   T   T
  0.2463016712755390  0.2492685020943952  0.5897165006630303   T   T   T
  0.2463234791703783  0.5006986731948970  0.5897310737811381   T   T   T
  0.2501269957128116  0.7500735703981078  0.5893019127978150   T   T   T
  0.5000215744379162  0.9991520969200138  0.5894375686612250   T   T   T
  0.5064408091645802  0.2458080274328722  0.5919091740119669   T   T   T
  0.5064478551818539  0.5041327134219529  0.5919175239433940   T   T   T
  0.5000314934565466  0.7507888163097860  0.5894416008498524   T   T   T
  0.7499283281901228  0.0001390038804345  0.5892975832578884   T   T   T
  0.7540284372309145  0.2497094217550710  0.5886187642130380   T   T   T
  0.7540233882886938  0.5002843871448164  0.5886186561142495   T   T   T
  0.7499381390821753  0.7498578689095510  0.5892992753505197   T   T   T
  0.4444989393377412  0.3748800166040454  0.6394358972110936   T   T   T
  0.4621907897348478  0.3747550471819139  0.6796948409041192   T   T   T
  0.3049396929424617  0.3749557004885844  0.6251988569940679   T   T   T
 
  0.00000000E+00  0.00000000E+00  0.00000000E+00
  0.00000000E+00  0.00000000E+00  0.00000000E+00
  0.00000000E+00  0.00000000E+00  0.00000000E+00
  0.00000000E+00  0.00000000E+00  0.00000000E+00
  0.00000000E+00  0.00000000E+00  0.00000000E+00
  0.00000000E+00  0.00000000E+00  0.00000000E+00
  0.00000000E+00  0.00000000E+00  0.00000000E+00
  0.00000000E+00  0.00000000E+00  0.00000000E+00
  0.00000000E+00  0.00000000E+00  0.00000000E+00
  0.00000000E+00  0.00000000E+00  0.00000000E+00
  0.00000000E+00  0.00000000E+00  0.00000000E+00
  0.00000000E+00  0.00000000E+00  0.00000000E+00
  0.00000000E+00  0.00000000E+00  0.00000000E+00
  0.00000000E+00  0.00000000E+00  0.00000000E+00
  0.00000000E+00  0.00000000E+00  0.00000000E+00
  0.00000000E+00  0.00000000E+00  0.00000000E+00
  0.00000000E+00  0.00000000E+00  0.00000000E+00
  0.00000000E+00  0.00000000E+00  0.00000000E+00
  0.00000000E+00  0.00000000E+00  0.00000000E+00
  0.00000000E+00  0.00000000E+00  0.00000000E+00
  0.00000000E+00  0.00000000E+00  0.00000000E+00
  0.00000000E+00  0.00000000E+00  0.00000000E+00
  0.00000000E+00  0.00000000E+00  0.00000000E+00
  0.00000000E+00  0.00000000E+00  0.00000000E+00
  0.00000000E+00  0.00000000E+00  0.00000000E+00
  0.00000000E+00  0.00000000E+00  0.00000000E+00
  0.00000000E+00  0.00000000E+00  0.00000000E+00
  0.00000000E+00  0.00000000E+00  0.00000000E+00
  0.00000000E+00  0.00000000E+00  0.00000000E+00
  0.00000000E+00  0.00000000E+00  0.00000000E+00
  0.00000000E+00  0.00000000E+00  0.00000000E+00
  0.00000000E+00  0.00000000E+00  0.00000000E+00
  0.00000000E+00  0.00000000E+00  0.00000000E+00
  0.00000000E+00  0.00000000E+00  0.00000000E+00
  0.00000000E+00  0.00000000E+00  0.00000000E+00
  0.00000000E+00  0.00000000E+00  0.00000000E+00
  0.00000000E+00  0.00000000E+00  0.00000000E+00
  0.00000000E+00  0.00000000E+00  0.00000000E+00
  0.00000000E+00  0.00000000E+00  0.00000000E+00
  0.00000000E+00  0.00000000E+00  0.00000000E+00
  0.00000000E+00  0.00000000E+00  0.00000000E+00
  0.00000000E+00  0.00000000E+00  0.00000000E+00
  0.00000000E+00  0.00000000E+00  0.00000000E+00
  0.00000000E+00  0.00000000E+00  0.00000000E+00
  0.00000000E+00  0.00000000E+00  0.00000000E+00
  0.00000000E+00  0.00000000E+00  0.00000000E+00
  0.00000000E+00  0.00000000E+00  0.00000000E+00
  0.00000000E+00  0.00000000E+00  0.00000000E+00
  0.00000000E+00  0.00000000E+00  0.00000000E+00
  0.00000000E+00  0.00000000E+00  0.00000000E+00
  0.00000000E+00  0.00000000E+00  0.00000000E+00
  0.00000000E+00  0.00000000E+00  0.00000000E+00
  0.00000000E+00  0.00000000E+00  0.00000000E+00
  0.00000000E+00  0.00000000E+00  0.00000000E+00
  0.00000000E+00  0.00000000E+00  0.00000000E+00
  0.00000000E+00  0.00000000E+00  0.00000000E+00
  0.00000000E+00  0.00000000E+00  0.00000000E+00
  0.00000000E+00  0.00000000E+00  0.00000000E+00
  0.00000000E+00  0.00000000E+00  0.00000000E+00
  0.00000000E+00  0.00000000E+00  0.00000000E+00
  0.00000000E+00  0.00000000E+00  0.00000000E+00
  0.00000000E+00  0.00000000E+00  0.00000000E+00
  0.00000000E+00  0.00000000E+00  0.00000000E+00
  0.00000000E+00  0.00000000E+00  0.00000000E+00
  0.00000000E+00  0.00000000E+00  0.00000000E+00
  0.00000000E+00  0.00000000E+00  0.00000000E+00
  0.00000000E+00  0.00000000E+00  0.00000000E+00
