Pd N O H                                
   1.00000000000000     
    10.9819999999999993    0.0000000000000000    0.0000000000000000
     0.0000000000000000   10.9819999999999993    0.0000000000000000
     0.0000000000000000    0.0000000000000000   30.0000000000000000
   Pd   N    O    H 
    64     1     2     2
Selective dynamics
Direct
  0.1249995473439967  0.1249995473439967  0.4029322681199972   F   F   F
  0.1249995473439967  0.3749986420319971  0.4029322681199972   F   F   F
  0.1249995473439967  0.6249977367199975  0.4029322681199972   F   F   F
  0.1249995473439967  0.8749968314079979  0.4029322681199972   F   F   F
  0.3749986420319971  0.1249995473439967  0.4029322681199972   F   F   F
  0.3749986420319971  0.3749986420319971  0.4029322681199972   F   F   F
  0.3749986420319971  0.6249977367199975  0.4029322681199972   F   F   F
  0.3749986420319971  0.8749968314079979  0.4029322681199972   F   F   F
  0.6249977367199975  0.1249995473439967  0.4029322681199972   F   F   F
  0.6249977367199975  0.3749986420319971  0.4029322681199972   F   F   F
  0.6249977367199975  0.6249977367199975  0.4029322681199972   F   F   F
  0.6249977367199975  0.8749968314079979  0.4029322681199972   F   F   F
  0.8749968314079979  0.1249995473439967  0.4029322681199972   F   F   F
  0.8749968314079979  0.3749986420319971  0.4029322681199972   F   F   F
  0.8749968314079979  0.6249977367199975  0.4029322681199972   F   F   F
  0.8749968314079979  0.8749968314079979  0.4029322681199972   F   F   F
  0.9999045456195392  0.0002252395860998  0.4681234348150899   T   T   T
  0.9997377174864397  0.2497821196182947  0.4682173921844628   T   T   T
  0.0000426123818993  0.5000658419284961  0.4681298213770142   T   T   T
  0.0002204524704477  0.7499463046442071  0.4680782111601707   T   T   T
  0.2496343853430664  0.9999477091408655  0.4680274932012043   T   T   T
  0.2497084505045158  0.2498225674964273  0.4678795866790115   T   T   T
  0.2496604482331404  0.5002973403159909  0.4679727684420337   T   T   T
  0.2497177167700244  0.7498687532155736  0.4680205345428206   T   T   T
  0.5005073415440623  0.0001248149598784  0.4680023937983330   T   T   T
  0.5005057078833284  0.2498048550476101  0.4680743152930882   T   T   T
  0.5003053009623121  0.5002531866831351  0.4678946188629328   T   T   T
  0.5003317823210802  0.7499299617032383  0.4680534357327935   T   T   T
  0.7501275139942375  0.0003541078515899  0.4681572987255391   T   T   T
  0.7500146910233438  0.2496915304130876  0.4680118836679353   T   T   T
  0.7501696820301774  0.5000158674312548  0.4681363858137848   T   T   T
  0.7501067269936905  0.7500374868323434  0.4680014403008164   T   T   T
  0.1263239558585872  0.1261818444177192  0.5334997213356477   T   T   T
  0.1246294766363411  0.3751138157804079  0.5329122370807433   T   T   T
  0.1266109268085403  0.6236516484692226  0.5336980659000575   T   T   T
  0.1252045574287729  0.8749408505603838  0.5329668659765657   T   T   T
  0.3749071016140095  0.1240947832187994  0.5326184933157558   T   T   T
  0.3748471526919734  0.3754003522747403  0.5314636991745633   T   T   T
  0.3750971521434241  0.6255580900558012  0.5328965759030340   T   T   T
  0.3751553353694410  0.8748710940516277  0.5328375822619256   T   T   T
  0.6245278506826248  0.1269335899636665  0.5339048117378365   T   T   T
  0.6264896549024783  0.3747402488534072  0.5329844531696502   T   T   T
  0.6237323585280443  0.6238394418000731  0.5334541827541232   T   T   T
  0.6250150620175025  0.8750869141341500  0.5328277846672104   T   T   T
  0.8742898041430012  0.1260557228382430  0.5334745831649313   T   T   T
  0.8744185758760618  0.3740663248227129  0.5333875620975164   T   T   T
  0.8754723155959065  0.6250223847492095  0.5328541934633797   T   T   T
  0.8753866274908840  0.8751384575212736  0.5327862841618766   T   T   T
  0.0001664209359219  0.9999559322986320  0.5980926398001568   T   T   T
  0.0018102317921302  0.2500427328728924  0.5981515495006842   T   T   T
  0.0001932303503387  0.5001127864475580  0.5983539303907939   T   T   T
  0.0000134385113144  0.7501340530920373  0.5980249430617629   T   T   T
  0.2504659154485396  0.9997519343927322  0.5981814758417341   T   T   T
  0.2511015811214343  0.2507316453640754  0.6000675869697391   T   T   T
  0.2514689681044247  0.4989175197827792  0.6002118912332486   T   T   T
  0.2502431823165037  0.7502547822112173  0.5983179169705892   T   T   T
  0.5003743623573730  0.9998729047617616  0.5983432659947121   T   T   T
  0.4978526752082600  0.2506575939527901  0.5987214152099808   T   T   T
  0.4999072533056970  0.4993842036028606  0.5999330708967331   T   T   T
  0.5001485790108119  0.7504108143443702  0.5982199408795599   T   T   T
  0.7500232714261905  0.9988823949559852  0.5977075592619374   T   T   T
  0.7525130570033757  0.2506428671334905  0.6012384778343222   T   T   T
  0.7505386671828541  0.5014564711149799  0.5978450677667613   T   T   T
  0.7502251577604523  0.7501992740146571  0.5980088227703042   T   T   T
  0.3794367241030315  0.3742815556028006  0.6344050828494342   T   T   T
  0.3841830333407615  0.3727829127779580  0.6753728736402970   T   T   T
  0.7078124872609277  0.2487631119431000  0.6781433185676043   T   T   T
  0.6652130245887146  0.1709563854789768  0.6811018804651116   T   T   T
  0.6443767064270861  0.3106455232027611  0.6816939831447334   T   T   T
 
  0.00000000E+00  0.00000000E+00  0.00000000E+00
  0.00000000E+00  0.00000000E+00  0.00000000E+00
  0.00000000E+00  0.00000000E+00  0.00000000E+00
  0.00000000E+00  0.00000000E+00  0.00000000E+00
  0.00000000E+00  0.00000000E+00  0.00000000E+00
  0.00000000E+00  0.00000000E+00  0.00000000E+00
  0.00000000E+00  0.00000000E+00  0.00000000E+00
  0.00000000E+00  0.00000000E+00  0.00000000E+00
  0.00000000E+00  0.00000000E+00  0.00000000E+00
  0.00000000E+00  0.00000000E+00  0.00000000E+00
  0.00000000E+00  0.00000000E+00  0.00000000E+00
  0.00000000E+00  0.00000000E+00  0.00000000E+00
  0.00000000E+00  0.00000000E+00  0.00000000E+00
  0.00000000E+00  0.00000000E+00  0.00000000E+00
  0.00000000E+00  0.00000000E+00  0.00000000E+00
  0.00000000E+00  0.00000000E+00  0.00000000E+00
  0.00000000E+00  0.00000000E+00  0.00000000E+00
  0.00000000E+00  0.00000000E+00  0.00000000E+00
  0.00000000E+00  0.00000000E+00  0.00000000E+00
  0.00000000E+00  0.00000000E+00  0.00000000E+00
  0.00000000E+00  0.00000000E+00  0.00000000E+00
  0.00000000E+00  0.00000000E+00  0.00000000E+00
  0.00000000E+00  0.00000000E+00  0.00000000E+00
  0.00000000E+00  0.00000000E+00  0.00000000E+00
  0.00000000E+00  0.00000000E+00  0.00000000E+00
  0.00000000E+00  0.00000000E+00  0.00000000E+00
  0.00000000E+00  0.00000000E+00  0.00000000E+00
  0.00000000E+00  0.00000000E+00  0.00000000E+00
  0.00000000E+00  0.00000000E+00  0.00000000E+00
  0.00000000E+00  0.00000000E+00  0.00000000E+00
  0.00000000E+00  0.00000000E+00  0.00000000E+00
  0.00000000E+00  0.00000000E+00  0.00000000E+00
  0.00000000E+00  0.00000000E+00  0.00000000E+00
  0.00000000E+00  0.00000000E+00  0.00000000E+00
  0.00000000E+00  0.00000000E+00  0.00000000E+00
  0.00000000E+00  0.00000000E+00  0.00000000E+00
  0.00000000E+00  0.00000000E+00  0.00000000E+00
  0.00000000E+00  0.00000000E+00  0.00000000E+00
  0.00000000E+00  0.00000000E+00  0.00000000E+00
  0.00000000E+00  0.00000000E+00  0.00000000E+00
  0.00000000E+00  0.00000000E+00  0.00000000E+00
  0.00000000E+00  0.00000000E+00  0.00000000E+00
  0.00000000E+00  0.00000000E+00  0.00000000E+00
  0.00000000E+00  0.00000000E+00  0.00000000E+00
  0.00000000E+00  0.00000000E+00  0.00000000E+00
  0.00000000E+00  0.00000000E+00  0.00000000E+00
  0.00000000E+00  0.00000000E+00  0.00000000E+00
  0.00000000E+00  0.00000000E+00  0.00000000E+00
  0.00000000E+00  0.00000000E+00  0.00000000E+00
  0.00000000E+00  0.00000000E+00  0.00000000E+00
  0.00000000E+00  0.00000000E+00  0.00000000E+00
  0.00000000E+00  0.00000000E+00  0.00000000E+00
  0.00000000E+00  0.00000000E+00  0.00000000E+00
  0.00000000E+00  0.00000000E+00  0.00000000E+00
  0.00000000E+00  0.00000000E+00  0.00000000E+00
  0.00000000E+00  0.00000000E+00  0.00000000E+00
  0.00000000E+00  0.00000000E+00  0.00000000E+00
  0.00000000E+00  0.00000000E+00  0.00000000E+00
  0.00000000E+00  0.00000000E+00  0.00000000E+00
  0.00000000E+00  0.00000000E+00  0.00000000E+00
  0.00000000E+00  0.00000000E+00  0.00000000E+00
  0.00000000E+00  0.00000000E+00  0.00000000E+00
  0.00000000E+00  0.00000000E+00  0.00000000E+00
  0.00000000E+00  0.00000000E+00  0.00000000E+00
  0.00000000E+00  0.00000000E+00  0.00000000E+00
  0.00000000E+00  0.00000000E+00  0.00000000E+00
  0.00000000E+00  0.00000000E+00  0.00000000E+00
  0.00000000E+00  0.00000000E+00  0.00000000E+00
  0.00000000E+00  0.00000000E+00  0.00000000E+00
