Cu H N O                                
   1.00000000000000     
    10.0912000000000006    0.0000000000000000    0.0000000000000000
     0.0000000000000000   10.0912000000000006    0.0000000000000000
     0.0000000000000000    0.0000000000000000   30.0000000000000000
   Cu   H    N    O 
    64     2     1     2
Selective dynamics
Direct
  0.1249998119670011  0.1249998119670011  0.4104769008810010   F   F   F
  0.1249998119670011  0.3749994359000013  0.4104769008810010   F   F   F
  0.1249998119670011  0.6249990598330015  0.4104769008810010   F   F   F
  0.1249998119670011  0.8749986837660018  0.4104769008810010   F   F   F
  0.3749994359000013  0.1249998119670011  0.4104769008810010   F   F   F
  0.3749994359000013  0.3749994359000013  0.4104769008810010   F   F   F
  0.3749994359000013  0.6249990598330015  0.4104769008810010   F   F   F
  0.3749994359000013  0.8749986837660018  0.4104769008810010   F   F   F
  0.6249990598330015  0.1249998119670011  0.4104769008810010   F   F   F
  0.6249990598330015  0.3749994359000013  0.4104769008810010   F   F   F
  0.6249990598330015  0.6249990598330015  0.4104769008810010   F   F   F
  0.6249990598330015  0.8749986837660018  0.4104769008810010   F   F   F
  0.8749986837660018  0.1249998119670011  0.4104769008810010   F   F   F
  0.8749986837660018  0.3749994359000013  0.4104769008810010   F   F   F
  0.8749986837660018  0.6249990598330015  0.4104769008810010   F   F   F
  0.8749986837660018  0.8749986837660018  0.4104769008810010   F   F   F
  0.0005069764801526  0.0003137289744836  0.4697947709568776   T   T   T
  0.0002506423647056  0.2504955317086471  0.4698228933307373   T   T   T
 -0.0001729195602541  0.5006335002606959  0.4697737335514269   T   T   T
 -0.0000233526198342  0.7501209465317660  0.4698075079550006   T   T   T
  0.2504834069532145  0.0005930439377934  0.4699292766086304   T   T   T
  0.2496841384168192  0.2495327313723504  0.4694787897013705   T   T   T
  0.2493967287507590  0.5006379110864823  0.4696304327080987   T   T   T
  0.2499322184679860  0.7501569691941103  0.4698994368947523   T   T   T
  0.5000643981703382  0.0000605008208134  0.4698746737318674   T   T   T
  0.5007442071162637  0.2489240807687235  0.4694012707252164   T   T   T
  0.5003431630083591  0.5001398240342130  0.4695225882374251   T   T   T
  0.4997597272986343  0.7495690376782964  0.4699285935301823   T   T   T
  0.7498218669572393  0.0000489608738773  0.4698740920231957   T   T   T
  0.7495093457307009  0.2500061053087913  0.4699112075593456   T   T   T
  0.7490844713834627  0.4996699199950694  0.4699641988330095   T   T   T
  0.7496145566881901  0.7495957954540384  0.4698832464073168   T   T   T
  0.1267653498626561  0.1273169206818109  0.5308072202103961   T   T   T
  0.1262913717196035  0.3766917487686765  0.5304185890849404   T   T   T
  0.1250048247966936  0.6252360241027612  0.5309382004495647   T   T   T
  0.1250264039907161  0.8760368858112116  0.5302310395087305   T   T   T
  0.3764439241025165  0.1272895411889478  0.5312211674292512   T   T   T
  0.3756934826923241  0.3737484320024078  0.5278711410877645   T   T   T
  0.3739064882044121  0.6229324195264453  0.5305824593699573   T   T   T
  0.3752421774852073  0.8753647530034276  0.5302613419621733   T   T   T
  0.6239342277918790  0.1252255660118015  0.5311851343324110   T   T   T
  0.6215798053122360  0.3733820220010040  0.5312022381133890   T   T   T
  0.6228236814729929  0.6226971435864327  0.5309898982071654   T   T   T
  0.6250005117229525  0.8742481926881843  0.5303598734692456   T   T   T
  0.8757758964454035  0.1251502129008739  0.5300318322593164   T   T   T
  0.8745968098314290  0.3757605766313311  0.5299199605423073   T   T   T
  0.8739497782194232  0.6252302156110799  0.5303478311016026   T   T   T
  0.8753833960780264  0.8748785459622564  0.5303424827738156   T   T   T
  0.0004612177902510  0.0009713351388610  0.5895407838343514   T   T   T
  0.0005277883787891  0.2509426765414685  0.5893950099421614   T   T   T
  0.9967081550240670  0.5004594164247232  0.5895099507692930   T   T   T
 -0.0000406090058540  0.7506641850491440  0.5896868602538198   T   T   T
  0.2498755318695873  0.0018623653877292  0.5893587751387228   T   T   T
  0.2492500094092170  0.2528994162211047  0.5911761970917260   T   T   T
  0.2447481348499297  0.5052742029209406  0.5920416796290564   T   T   T
  0.2501083109958921  0.7530593491866890  0.5894955208388198   T   T   T
  0.5000654957585003  0.9952652843337143  0.5898324625105995   T   T   T
  0.5027140826318217  0.2468792422904528  0.5938181664994038   T   T   T
  0.4971997511377920  0.4990051642638275  0.5919440684686228   T   T   T
  0.4996338153623969  0.7478159062165134  0.5895569906571977   T   T   T
  0.7513971845331147 -0.0002683768431841  0.5891772488160093   T   T   T
  0.7536632057454720  0.2505982523567115  0.5888478327644976   T   T   T
  0.7476878631794123  0.4994010364338192  0.5896159269383839   T   T   T
  0.7496741148229965  0.7496963469851585  0.5895938925933641   T   T   T
  0.6176728082182282  0.1890836390021717  0.6740560029679938   T   T   T
  0.4709552232448952  0.2459181092704346  0.6776072650288593   T   T   T
  0.3633324977624453  0.3847229368257092  0.6272942034779655   T   T   T
  0.3648050745348660  0.3786534333234508  0.6697294117539984   T   T   T
  0.5265777147619209  0.1732761785046638  0.6646182176820937   T   T   T
 
  0.00000000E+00  0.00000000E+00  0.00000000E+00
  0.00000000E+00  0.00000000E+00  0.00000000E+00
  0.00000000E+00  0.00000000E+00  0.00000000E+00
  0.00000000E+00  0.00000000E+00  0.00000000E+00
  0.00000000E+00  0.00000000E+00  0.00000000E+00
  0.00000000E+00  0.00000000E+00  0.00000000E+00
  0.00000000E+00  0.00000000E+00  0.00000000E+00
  0.00000000E+00  0.00000000E+00  0.00000000E+00
  0.00000000E+00  0.00000000E+00  0.00000000E+00
  0.00000000E+00  0.00000000E+00  0.00000000E+00
  0.00000000E+00  0.00000000E+00  0.00000000E+00
  0.00000000E+00  0.00000000E+00  0.00000000E+00
  0.00000000E+00  0.00000000E+00  0.00000000E+00
  0.00000000E+00  0.00000000E+00  0.00000000E+00
  0.00000000E+00  0.00000000E+00  0.00000000E+00
  0.00000000E+00  0.00000000E+00  0.00000000E+00
  0.00000000E+00  0.00000000E+00  0.00000000E+00
  0.00000000E+00  0.00000000E+00  0.00000000E+00
  0.00000000E+00  0.00000000E+00  0.00000000E+00
  0.00000000E+00  0.00000000E+00  0.00000000E+00
  0.00000000E+00  0.00000000E+00  0.00000000E+00
  0.00000000E+00  0.00000000E+00  0.00000000E+00
  0.00000000E+00  0.00000000E+00  0.00000000E+00
  0.00000000E+00  0.00000000E+00  0.00000000E+00
  0.00000000E+00  0.00000000E+00  0.00000000E+00
  0.00000000E+00  0.00000000E+00  0.00000000E+00
  0.00000000E+00  0.00000000E+00  0.00000000E+00
  0.00000000E+00  0.00000000E+00  0.00000000E+00
  0.00000000E+00  0.00000000E+00  0.00000000E+00
  0.00000000E+00  0.00000000E+00  0.00000000E+00
  0.00000000E+00  0.00000000E+00  0.00000000E+00
  0.00000000E+00  0.00000000E+00  0.00000000E+00
  0.00000000E+00  0.00000000E+00  0.00000000E+00
  0.00000000E+00  0.00000000E+00  0.00000000E+00
  0.00000000E+00  0.00000000E+00  0.00000000E+00
  0.00000000E+00  0.00000000E+00  0.00000000E+00
  0.00000000E+00  0.00000000E+00  0.00000000E+00
  0.00000000E+00  0.00000000E+00  0.00000000E+00
  0.00000000E+00  0.00000000E+00  0.00000000E+00
  0.00000000E+00  0.00000000E+00  0.00000000E+00
  0.00000000E+00  0.00000000E+00  0.00000000E+00
  0.00000000E+00  0.00000000E+00  0.00000000E+00
  0.00000000E+00  0.00000000E+00  0.00000000E+00
  0.00000000E+00  0.00000000E+00  0.00000000E+00
  0.00000000E+00  0.00000000E+00  0.00000000E+00
  0.00000000E+00  0.00000000E+00  0.00000000E+00
  0.00000000E+00  0.00000000E+00  0.00000000E+00
  0.00000000E+00  0.00000000E+00  0.00000000E+00
  0.00000000E+00  0.00000000E+00  0.00000000E+00
  0.00000000E+00  0.00000000E+00  0.00000000E+00
  0.00000000E+00  0.00000000E+00  0.00000000E+00
  0.00000000E+00  0.00000000E+00  0.00000000E+00
  0.00000000E+00  0.00000000E+00  0.00000000E+00
  0.00000000E+00  0.00000000E+00  0.00000000E+00
  0.00000000E+00  0.00000000E+00  0.00000000E+00
  0.00000000E+00  0.00000000E+00  0.00000000E+00
  0.00000000E+00  0.00000000E+00  0.00000000E+00
  0.00000000E+00  0.00000000E+00  0.00000000E+00
  0.00000000E+00  0.00000000E+00  0.00000000E+00
  0.00000000E+00  0.00000000E+00  0.00000000E+00
  0.00000000E+00  0.00000000E+00  0.00000000E+00
  0.00000000E+00  0.00000000E+00  0.00000000E+00
  0.00000000E+00  0.00000000E+00  0.00000000E+00
  0.00000000E+00  0.00000000E+00  0.00000000E+00
  0.00000000E+00  0.00000000E+00  0.00000000E+00
  0.00000000E+00  0.00000000E+00  0.00000000E+00
  0.00000000E+00  0.00000000E+00  0.00000000E+00
  0.00000000E+00  0.00000000E+00  0.00000000E+00
  0.00000000E+00  0.00000000E+00  0.00000000E+00
