Cu H N O                                
   1.00000000000000     
    10.0912000000000006    0.0000000000000000    0.0000000000000000
     0.0000000000000000   10.0912000000000006    0.0000000000000000
     0.0000000000000000    0.0000000000000000   30.0000000000000000
   Cu   H    N    O 
    64     3     1     2
Selective dynamics
Direct
  0.1250240490140015  0.1249965800840016  0.4103895200840029   F   F   F
  0.1250196926649991  0.3750094299269975  0.4103808133559994   F   F   F
  0.1250169591979997  0.6250307160109969  0.4103857530280024   F   F   F
  0.1250225168059984  0.8750171938560030  0.4103942205910016   F   F   F
  0.3750226240870020  0.1250105945279998  0.4104120101190034   F   F   F
  0.3750228403259968  0.3750105465359965  0.4104061454969994   F   F   F
  0.3750174204409973  0.6250225802070020  0.4104056963889988   F   F   F
  0.3750158389640035  0.8750219737789990  0.4104106029449994   F   F   F
  0.6249777766590014  0.1250126767910018  0.4104120095869987   F   F   F
  0.6249754351839982  0.3750104279000013  0.4104104177890022   F   F   F
  0.6249770759140034  0.6250164495370001  0.4104073320550015   F   F   F
  0.6249796601520003  0.8750182522859973  0.4104090706290009   F   F   F
  0.8749764824200028  0.1249997018529996  0.4103907975179979   F   F   F
  0.8749694171740003  0.3750093820099991  0.4103852752310004   F   F   F
  0.8749730506360009  0.6250238795649992  0.4103888619009979   F   F   F
  0.8749804424310028  0.8750137306119967  0.4103934434159981   F   F   F
  0.9998668736626178  0.9999006763303449  0.4698971139657911   T   T   T
  0.9997853425292991  0.2497314320295058  0.4698117248930839   T   T   T
  0.9994383532648403  0.4999512124844148  0.4698364775058662   T   T   T
  0.9993925787861556  0.7494327397090549  0.4700113083213591   T   T   T
  0.2495949559442041  0.0000037147791513  0.4698555327135086   T   T   T
  0.2483973290795358  0.2491804100582505  0.4693359352880780   T   T   T
  0.2481700011464468  0.5007636384255315  0.4693406677639652   T   T   T
  0.2493950549447192  0.7499452622921327  0.4698446018071048   T   T   T
  0.4996344990126841  0.9998488397368692  0.4698037571479876   T   T   T
  0.4999659511906644  0.2488192101063670  0.4692127554600720   T   T   T
  0.4998834579711410  0.5010983173025737  0.4692364353849285   T   T   T
  0.4996383814718839  0.7496793235127276  0.4698914678612220   T   T   T
  0.7497496663543611  0.9995452690491875  0.4698256332585111   T   T   T
  0.7497529644114153  0.2496533544046305  0.4698106236974270   T   T   T
  0.7495192641965353  0.4998642969117731  0.4698157575729044   T   T   T
  0.7495198358016423  0.7494961942107008  0.4698821641073013   T   T   T
  0.1253017592995518  0.1263156207500202  0.5311120832435623   T   T   T
  0.1249814589196666  0.3747820057119945  0.5307022015083568   T   T   T
  0.1241758745757227  0.6232294846076720  0.5311433459778275   T   T   T
  0.1243910992447781  0.8748366260951584  0.5303491706491456   T   T   T
  0.3738052367774883  0.1266127850512989  0.5304824585233859   T   T   T
  0.3731859849424470  0.3750372590206054  0.5267011440610107   T   T   T
  0.3729094535651203  0.6233481537594119  0.5305050167522262   T   T   T
  0.3744580261322344  0.8750294155545409  0.5301702696227196   T   T   T
  0.6237948356592695  0.1252276188375456  0.5305395350430113   T   T   T
  0.6220167923907276  0.3746453265653168  0.5294717129248696   T   T   T
  0.6232029695485789  0.6228234688115738  0.5310662242437736   T   T   T
  0.6245022043210862  0.8742278499965745  0.5303813503745303   T   T   T
  0.8740589305889364  0.1247462976194537  0.5304188309301660   T   T   T
  0.8738211555909049  0.3743325337876983  0.5299876843891038   T   T   T
  0.8723505909574414  0.6228900688127232  0.5308641394183902   T   T   T
  0.8742221165642864  0.8740247792340181  0.5306715268095880   T   T   T
  0.9994211913633226  0.9998286144915235  0.5896759659469215   T   T   T
  0.9985081499573817  0.2497912157152314  0.5897528803034792   T   T   T
  0.9965500191477198  0.4992603695056961  0.5898003006795093   T   T   T
  0.9991493992613334  0.7494659078677068  0.5896867109807482   T   T   T
  0.2498108482445510  0.9996835878677922  0.5896075407982005   T   T   T
  0.2481649277413841  0.2493334101362854  0.5922407014592300   T   T   T
  0.2459441852163813  0.5004384355171350  0.5922420232848776   T   T   T
  0.2493505369354683  0.7502043741025485  0.5895349891198407   T   T   T
  0.4996948846390951  0.0001940873994200  0.5895354848380032   T   T   T
  0.4983257362224070  0.2498935401120138  0.5897102797977026   T   T   T
  0.4964253430887956  0.5007690979324368  0.5901762501731594   T   T   T
  0.4990991265439604  0.7502865085935483  0.5895016084003052   T   T   T
  0.7492028600530422  0.9997404028854006  0.5897049766540521   T   T   T
  0.7485025643692039  0.2503897336148494  0.5899826343192821   T   T   T
  0.7453088300815041  0.4931945559115033  0.5915423535786503   T   T   T
  0.7488590622213688  0.7472309958892018  0.5897867427886877   T   T   T
  0.6801171580336142  0.3556980981970225  0.6356390278934366   T   T   T
  0.6451158851140661  0.2378312930788913  0.6817331829715303   T   T   T
  0.5340053950774366  0.3520510615153387  0.6783217409922350   T   T   T
  0.3718946610984495  0.3763228920855306  0.6257721262368329   T   T   T
  0.3854876461940639  0.3771927420870678  0.6687018112730041   T   T   T
  0.6356963962703021  0.3343860443743290  0.6799037783552524   T   T   T
 
  0.00000000E+00  0.00000000E+00  0.00000000E+00
  0.00000000E+00  0.00000000E+00  0.00000000E+00
  0.00000000E+00  0.00000000E+00  0.00000000E+00
  0.00000000E+00  0.00000000E+00  0.00000000E+00
  0.00000000E+00  0.00000000E+00  0.00000000E+00
  0.00000000E+00  0.00000000E+00  0.00000000E+00
  0.00000000E+00  0.00000000E+00  0.00000000E+00
  0.00000000E+00  0.00000000E+00  0.00000000E+00
  0.00000000E+00  0.00000000E+00  0.00000000E+00
  0.00000000E+00  0.00000000E+00  0.00000000E+00
  0.00000000E+00  0.00000000E+00  0.00000000E+00
  0.00000000E+00  0.00000000E+00  0.00000000E+00
  0.00000000E+00  0.00000000E+00  0.00000000E+00
  0.00000000E+00  0.00000000E+00  0.00000000E+00
  0.00000000E+00  0.00000000E+00  0.00000000E+00
  0.00000000E+00  0.00000000E+00  0.00000000E+00
  0.00000000E+00  0.00000000E+00  0.00000000E+00
  0.00000000E+00  0.00000000E+00  0.00000000E+00
  0.00000000E+00  0.00000000E+00  0.00000000E+00
  0.00000000E+00  0.00000000E+00  0.00000000E+00
  0.00000000E+00  0.00000000E+00  0.00000000E+00
  0.00000000E+00  0.00000000E+00  0.00000000E+00
  0.00000000E+00  0.00000000E+00  0.00000000E+00
  0.00000000E+00  0.00000000E+00  0.00000000E+00
  0.00000000E+00  0.00000000E+00  0.00000000E+00
  0.00000000E+00  0.00000000E+00  0.00000000E+00
  0.00000000E+00  0.00000000E+00  0.00000000E+00
  0.00000000E+00  0.00000000E+00  0.00000000E+00
  0.00000000E+00  0.00000000E+00  0.00000000E+00
  0.00000000E+00  0.00000000E+00  0.00000000E+00
  0.00000000E+00  0.00000000E+00  0.00000000E+00
  0.00000000E+00  0.00000000E+00  0.00000000E+00
  0.00000000E+00  0.00000000E+00  0.00000000E+00
  0.00000000E+00  0.00000000E+00  0.00000000E+00
  0.00000000E+00  0.00000000E+00  0.00000000E+00
  0.00000000E+00  0.00000000E+00  0.00000000E+00
  0.00000000E+00  0.00000000E+00  0.00000000E+00
  0.00000000E+00  0.00000000E+00  0.00000000E+00
  0.00000000E+00  0.00000000E+00  0.00000000E+00
  0.00000000E+00  0.00000000E+00  0.00000000E+00
  0.00000000E+00  0.00000000E+00  0.00000000E+00
  0.00000000E+00  0.00000000E+00  0.00000000E+00
  0.00000000E+00  0.00000000E+00  0.00000000E+00
  0.00000000E+00  0.00000000E+00  0.00000000E+00
  0.00000000E+00  0.00000000E+00  0.00000000E+00
  0.00000000E+00  0.00000000E+00  0.00000000E+00
  0.00000000E+00  0.00000000E+00  0.00000000E+00
  0.00000000E+00  0.00000000E+00  0.00000000E+00
  0.00000000E+00  0.00000000E+00  0.00000000E+00
  0.00000000E+00  0.00000000E+00  0.00000000E+00
  0.00000000E+00  0.00000000E+00  0.00000000E+00
  0.00000000E+00  0.00000000E+00  0.00000000E+00
  0.00000000E+00  0.00000000E+00  0.00000000E+00
  0.00000000E+00  0.00000000E+00  0.00000000E+00
  0.00000000E+00  0.00000000E+00  0.00000000E+00
  0.00000000E+00  0.00000000E+00  0.00000000E+00
  0.00000000E+00  0.00000000E+00  0.00000000E+00
  0.00000000E+00  0.00000000E+00  0.00000000E+00
  0.00000000E+00  0.00000000E+00  0.00000000E+00
  0.00000000E+00  0.00000000E+00  0.00000000E+00
  0.00000000E+00  0.00000000E+00  0.00000000E+00
  0.00000000E+00  0.00000000E+00  0.00000000E+00
  0.00000000E+00  0.00000000E+00  0.00000000E+00
  0.00000000E+00  0.00000000E+00  0.00000000E+00
  0.00000000E+00  0.00000000E+00  0.00000000E+00
  0.00000000E+00  0.00000000E+00  0.00000000E+00
  0.00000000E+00  0.00000000E+00  0.00000000E+00
  0.00000000E+00  0.00000000E+00  0.00000000E+00
  0.00000000E+00  0.00000000E+00  0.00000000E+00
  0.00000000E+00  0.00000000E+00  0.00000000E+00
