Pd N O H
1.0
 10.982000000000   0.000000000000   0.000000000000
  0.000000000000  10.982000000000   0.000000000000
  0.000000000000   0.000000000000  30.000000000000
Pd N O H
 64   1   2   3
Selective dynamics
Direct
  0.124999547344   0.124999547344   0.402932268120  F F F
  0.124999547344   0.374998642032   0.402932268120  F F F
  0.124999547344   0.624997736720   0.402932268120  F F F
  0.124999547344   0.874996831408   0.402932268120  F F F
  0.374998642032   0.124999547344   0.402932268120  F F F
  0.374998642032   0.374998642032   0.402932268120  F F F
  0.374998642032   0.624997736720   0.402932268120  F F F
  0.374998642032   0.874996831408   0.402932268120  F F F
  0.624997736720   0.124999547344   0.402932268120  F F F
  0.624997736720   0.374998642032   0.402932268120  F F F
  0.624997736720   0.624997736720   0.402932268120  F F F
  0.624997736720   0.874996831408   0.402932268120  F F F
  0.874996831408   0.124999547344   0.402932268120  F F F
  0.874996831408   0.374998642032   0.402932268120  F F F
  0.874996831408   0.624997736720   0.402932268120  F F F
  0.874996831408   0.874996831408   0.402932268120  F F F
  1.000041602429   0.999982984926   0.468134632684  T T T
  1.000015603881   0.249656042501   0.468115674419  T T T
  0.999951877487   0.500341609870   0.468136701669  T T T
  1.000025456441   0.749988176892   0.468101681123  T T T
  0.249547838841   0.999971929952   0.468116817256  T T T
  0.249448570972   0.249568128839   0.467886750084  T T T
  0.249386604915   0.500392250375   0.467907102468  T T T
  0.249480162596   0.749988085826   0.468098821228  T T T
  0.500350446720   0.999926524320   0.468067450126  T T T
  0.500296370693   0.249537299795   0.467902541584  T T T
  0.500246935716   0.500412996118   0.467897020821  T T T
  0.500314656815   0.749996856122   0.468065663287  T T T
  0.750036343862   0.999924300251   0.468150626682  T T T
  0.750094493960   0.249557488589   0.468094459177  T T T
  0.750042711291   0.500347630251   0.468088668563  T T T
  0.749997825107   0.749949699095   0.468150632604  T T T
  0.126330277337   0.126568726834   0.533941361798  T T T
  0.124085511223   0.374940442283   0.533092077273  T T T
  0.126141736378   0.623352028061   0.533954627500  T T T
  0.124958548030   0.874974611197   0.533143751074  T T T
  0.374713434116   0.124009006977   0.532829171345  T T T
  0.374445529254   0.374952576948   0.530974946965  T T T
  0.374607203718   0.625948220490   0.532797604528  T T T
  0.374999356617   0.874983890907   0.532971840903  T T T
  0.623738512619   0.126060897128   0.533764215892  T T T
  0.625928191505   0.374936309700   0.532756892797  T T T
  0.623641793434   0.623685215748   0.533793647349  T T T
  0.624945292515   0.874887657332   0.533162196974  T T T
  0.875112364544   0.124978639978   0.533172228391  T T T
  0.875008643974   0.374972742983   0.533029527696  T T T
  0.874927601304   0.624847945027   0.533188602513  T T T
  0.874885173199   0.874907979698   0.533069386725  T T T
  0.999856905598   0.999834945609   0.598241188645  T T T
  0.999335267349   0.250059280139   0.598648389079  T T T
  0.998895686195   0.499846718393   0.598641006586  T T T
  0.999710182561   0.750092513537   0.598237736046  T T T
  0.250129468674   0.999642580004   0.598469499869  T T T
  0.250939477882   0.250634718889   0.600350964189  T T T
  0.250680914522   0.499408683903   0.600271143882  T T T
  0.249882408857   0.750382388402   0.598441740911  T T T
  0.500052156389   0.999580740788   0.598515117889  T T T
  0.499142260484   0.250163255064   0.599163236754  T T T
  0.499025400381   0.499580294965   0.599214533211  T T T
  0.499756139144   0.750328712844   0.598480010012  T T T
  0.750081211917   0.999967826632   0.598337636251  T T T
  0.750096756257   0.250052599950   0.598459074582  T T T
  0.749390387176   0.499230607344   0.598735690283  T T T
  0.749972325360   0.749666630209   0.598306225985  T T T
  0.374612299266   0.375385060174   0.630321927873  T T T
  0.372993475649   0.375959210551   0.675975170847  T T T
  0.604920898270   0.365785627521   0.696070454911  T T T
  0.634024557656   0.281913486654   0.693120294045  T T T
  0.463060638228   0.371404165827   0.686014813549  T T T
  0.643990104528   0.407971348356   0.670608333769  T T T
