H N O Pd                                
   1.00000000000000     
    10.9819999999999993    0.0000000000000000    0.0000000000000000
     0.0000000000000000   10.9819999999999993    0.0000000000000000
     0.0000000000000000    0.0000000000000000   30.0000000000000000
   H    N    O    Pd
     4     1     2    64
Selective dynamics
Direct
  0.4598379658810812  0.3246454522186250  0.6850086532394448   T   T   T
  0.1154107842505944  0.3791854339033063  0.6861779130503910   T   T   T
  0.2510256994403211  0.3289416413659081  0.6912084715770755   T   T   T
  0.1581059428675970  0.2644600876091875  0.6492265631606464   T   T   T
  0.3849997424379610  0.3756410396630584  0.6282355571740407   T   T   T
  0.3885439988169389  0.3757695274721938  0.6783756532608186   T   T   T
  0.1617418780078792  0.3029640544137022  0.6898120942853576   T   T   T
  0.1249778616479986  0.1249714221030018  0.4024468605569993   F   F   F
  0.1249839671200021  0.3750616305310004  0.4024617009200000   F   F   F
  0.1249844101240001  0.6250605668009968  0.4024978201950020   F   F   F
  0.1249827564669985  0.8749568270269990  0.4024854715479975   F   F   F
  0.3750153666420033  0.1249842219449988  0.4024345864740013   F   F   F
  0.3750134703279997  0.3750786919789988  0.4024375090300012   F   F   F
  0.3750204356409981  0.6250902599770001  0.4024798624259986   F   F   F
  0.3750228826439965  0.8749790590750024  0.4024782022270017   F   F   F
  0.6250360394629979  0.1249735259670004  0.4024485841139978   F   F   F
  0.6250533406890000  0.3750766422550029  0.4024431985530015   F   F   F
  0.6250573418739975  0.6250975149349998  0.4024903792999979   F   F   F
  0.6250352027269983  0.8749816563650015  0.4024968311560002   F   F   F
  0.8749921900090030  0.1249665053519990  0.4024650624980026   F   F   F
  0.8750158240420021  0.3750590781870002  0.4024717503999966   F   F   F
  0.8750193741329966  0.6250600458130009  0.4025148799020002   F   F   F
  0.8749918302220010  0.8749586389049995  0.4025068966080028   F   F   F
  0.0004060415873069  0.9997959596072965  0.4678120420044559   T   T   T
  0.0007515645736748  0.2495152906589794  0.4677249532863896   T   T   T
  0.0009469250072502  0.5000515448278361  0.4678018346355240   T   T   T
  0.0007423796277534  0.7495975151548993  0.4678823354230734   T   T   T
  0.2500488433337052  0.9995534412865154  0.4675997792980037   T   T   T
  0.2500776640785624  0.2492459387185720  0.4674979429691136   T   T   T
  0.2504267234283636  0.5000577136839787  0.4675134106175461   T   T   T
  0.2502793151537839  0.7495462035344000  0.4677200597335149   T   T   T
  0.5010344670516200  0.9996977948366715  0.4675089907288938   T   T   T
  0.5011451339340804  0.2494341296380931  0.4674894435157806   T   T   T
  0.5014576866157540  0.5004828411248655  0.4672866430484874   T   T   T
  0.5010995562970982  0.7499312896425101  0.4677241678771504   T   T   T
  0.7505874804695177  0.9999056542798328  0.4677172343379078   T   T   T
  0.7510710421236729  0.2494707575923434  0.4677508426618747   T   T   T
  0.7511898766400108  0.5003404302343692  0.4676703650007855   T   T   T
  0.7508512849983995  0.7499904342161261  0.4677282386645961   T   T   T
  0.1268153562351689  0.1253113524868986  0.5334790160905107   T   T   T
  0.1256916107688751  0.3745027103275405  0.5328052342465486   T   T   T
  0.1281028633191773  0.6227947973253114  0.5338054471255668   T   T   T
  0.1259329463947849  0.8742710768699667  0.5328409588605361   T   T   T
  0.3757476822880199  0.1231543967717507  0.5322807945770769   T   T   T
  0.3765323011546853  0.3748465910635304  0.5303669725445563   T   T   T
  0.3765899597220890  0.6253346652937043  0.5325536321554962   T   T   T
  0.3757796633737788  0.8745497140298747  0.5325651779697862   T   T   T
  0.6250373151092484  0.1259757862617156  0.5335345528871065   T   T   T
  0.6282612509189495  0.3751091972565961  0.5323539988252483   T   T   T
  0.6254010542945686  0.6236013878873545  0.5334215621581870   T   T   T
  0.6257560601991341  0.8749156699715059  0.5327824691316914   T   T   T
  0.8764784272694186  0.1250067536942205  0.5330452030228340   T   T   T
  0.8774090378919552  0.3744436286989387  0.5328930052964641   T   T   T
  0.8767588610207444  0.6244135777989973  0.5329412991912897   T   T   T
  0.8759703955319704  0.8747753919881585  0.5327888635616326   T   T   T
  0.0007839022457687  0.9990162201648426  0.5981756290590725   T   T   T
  0.0034900954997894  0.2496198589858863  0.5994668308720177   T   T   T
  0.0027104336684008  0.4991498574761778  0.5987418317101461   T   T   T
  0.0012536139984893  0.7493138140932325  0.5981315101639300   T   T   T
  0.2511527873739052  0.9984011730592306  0.5983007160282970   T   T   T
  0.2511632569610167  0.2480132373941511  0.5993017486640969   T   T   T
  0.2540412357712064  0.4982759852200140  0.5999986887259073   T   T   T
  0.2515531509338718  0.7494618808880537  0.5982352544262058   T   T   T
  0.5007901420402802  0.9992817400868234  0.5982177846694029   T   T   T
  0.5017477260561636  0.2493970826064618  0.5985017963053914   T   T   T
  0.5035791987083388  0.4999099118184271  0.5995085615616497   T   T   T
  0.5012669311591350  0.7502798575054651  0.5981791935411587   T   T   T
  0.7512726363405681  0.9995388696589403  0.5980335083459588   T   T   T
  0.7532003560120653  0.2499619078086141  0.5982926320142121   T   T   T
  0.7536363038962044  0.4995837683330024  0.5982809161047045   T   T   T
  0.7515066340070785  0.7499341924221596  0.5978767744515783   T   T   T
 
  0.00000000E+00  0.00000000E+00  0.00000000E+00
  0.00000000E+00  0.00000000E+00  0.00000000E+00
  0.00000000E+00  0.00000000E+00  0.00000000E+00
  0.00000000E+00  0.00000000E+00  0.00000000E+00
  0.00000000E+00  0.00000000E+00  0.00000000E+00
  0.00000000E+00  0.00000000E+00  0.00000000E+00
  0.00000000E+00  0.00000000E+00  0.00000000E+00
  0.00000000E+00  0.00000000E+00  0.00000000E+00
  0.00000000E+00  0.00000000E+00  0.00000000E+00
  0.00000000E+00  0.00000000E+00  0.00000000E+00
  0.00000000E+00  0.00000000E+00  0.00000000E+00
  0.00000000E+00  0.00000000E+00  0.00000000E+00
  0.00000000E+00  0.00000000E+00  0.00000000E+00
  0.00000000E+00  0.00000000E+00  0.00000000E+00
  0.00000000E+00  0.00000000E+00  0.00000000E+00
  0.00000000E+00  0.00000000E+00  0.00000000E+00
  0.00000000E+00  0.00000000E+00  0.00000000E+00
  0.00000000E+00  0.00000000E+00  0.00000000E+00
  0.00000000E+00  0.00000000E+00  0.00000000E+00
  0.00000000E+00  0.00000000E+00  0.00000000E+00
  0.00000000E+00  0.00000000E+00  0.00000000E+00
  0.00000000E+00  0.00000000E+00  0.00000000E+00
  0.00000000E+00  0.00000000E+00  0.00000000E+00
  0.00000000E+00  0.00000000E+00  0.00000000E+00
  0.00000000E+00  0.00000000E+00  0.00000000E+00
  0.00000000E+00  0.00000000E+00  0.00000000E+00
  0.00000000E+00  0.00000000E+00  0.00000000E+00
  0.00000000E+00  0.00000000E+00  0.00000000E+00
  0.00000000E+00  0.00000000E+00  0.00000000E+00
  0.00000000E+00  0.00000000E+00  0.00000000E+00
  0.00000000E+00  0.00000000E+00  0.00000000E+00
  0.00000000E+00  0.00000000E+00  0.00000000E+00
  0.00000000E+00  0.00000000E+00  0.00000000E+00
  0.00000000E+00  0.00000000E+00  0.00000000E+00
  0.00000000E+00  0.00000000E+00  0.00000000E+00
  0.00000000E+00  0.00000000E+00  0.00000000E+00
  0.00000000E+00  0.00000000E+00  0.00000000E+00
  0.00000000E+00  0.00000000E+00  0.00000000E+00
  0.00000000E+00  0.00000000E+00  0.00000000E+00
  0.00000000E+00  0.00000000E+00  0.00000000E+00
  0.00000000E+00  0.00000000E+00  0.00000000E+00
  0.00000000E+00  0.00000000E+00  0.00000000E+00
  0.00000000E+00  0.00000000E+00  0.00000000E+00
  0.00000000E+00  0.00000000E+00  0.00000000E+00
  0.00000000E+00  0.00000000E+00  0.00000000E+00
  0.00000000E+00  0.00000000E+00  0.00000000E+00
  0.00000000E+00  0.00000000E+00  0.00000000E+00
  0.00000000E+00  0.00000000E+00  0.00000000E+00
  0.00000000E+00  0.00000000E+00  0.00000000E+00
  0.00000000E+00  0.00000000E+00  0.00000000E+00
  0.00000000E+00  0.00000000E+00  0.00000000E+00
  0.00000000E+00  0.00000000E+00  0.00000000E+00
  0.00000000E+00  0.00000000E+00  0.00000000E+00
  0.00000000E+00  0.00000000E+00  0.00000000E+00
  0.00000000E+00  0.00000000E+00  0.00000000E+00
  0.00000000E+00  0.00000000E+00  0.00000000E+00
  0.00000000E+00  0.00000000E+00  0.00000000E+00
  0.00000000E+00  0.00000000E+00  0.00000000E+00
  0.00000000E+00  0.00000000E+00  0.00000000E+00
  0.00000000E+00  0.00000000E+00  0.00000000E+00
  0.00000000E+00  0.00000000E+00  0.00000000E+00
  0.00000000E+00  0.00000000E+00  0.00000000E+00
  0.00000000E+00  0.00000000E+00  0.00000000E+00
  0.00000000E+00  0.00000000E+00  0.00000000E+00
  0.00000000E+00  0.00000000E+00  0.00000000E+00
  0.00000000E+00  0.00000000E+00  0.00000000E+00
  0.00000000E+00  0.00000000E+00  0.00000000E+00
  0.00000000E+00  0.00000000E+00  0.00000000E+00
  0.00000000E+00  0.00000000E+00  0.00000000E+00
  0.00000000E+00  0.00000000E+00  0.00000000E+00
  0.00000000E+00  0.00000000E+00  0.00000000E+00
