Pd N O                                  
   1.00000000000000     
    10.9819999999999993    0.0000000000000000    0.0000000000000000
     0.0000000000000000   10.9819999999999993    0.0000000000000000
     0.0000000000000000    0.0000000000000000   30.0000000000000000
   Pd   N    O 
    64     1     3
Selective dynamics
Direct
  0.1249995473439967  0.1249995473439967  0.4029322681199972   F   F   F
  0.1249995473439967  0.3749986420319971  0.4029322681199972   F   F   F
  0.1249995473439967  0.6249977367199975  0.4029322681199972   F   F   F
  0.1249995473439967  0.8749968314079979  0.4029322681199972   F   F   F
  0.3749986420319971  0.1249995473439967  0.4029322681199972   F   F   F
  0.3749986420319971  0.3749986420319971  0.4029322681199972   F   F   F
  0.3749986420319971  0.6249977367199975  0.4029322681199972   F   F   F
  0.3749986420319971  0.8749968314079979  0.4029322681199972   F   F   F
  0.6249977367199975  0.1249995473439967  0.4029322681199972   F   F   F
  0.6249977367199975  0.3749986420319971  0.4029322681199972   F   F   F
  0.6249977367199975  0.6249977367199975  0.4029322681199972   F   F   F
  0.6249977367199975  0.8749968314079979  0.4029322681199972   F   F   F
  0.8749968314079979  0.1249995473439967  0.4029322681199972   F   F   F
  0.8749968314079979  0.3749986420319971  0.4029322681199972   F   F   F
  0.8749968314079979  0.6249977367199975  0.4029322681199972   F   F   F
  0.8749968314079979  0.8749968314079979  0.4029322681199972   F   F   F
  0.9999592918688749  0.9995909587012005  0.4680418087824667   T   T   T
  0.0000512846294877  0.2498464514774651  0.4678941147345144   T   T   T
  0.9996668693705197  0.4999605549450947  0.4681674543141856   T   T   T
  0.9997163938225517  0.7493875407362082  0.4682115411178869   T   T   T
  0.2498502678055718  0.9994422099032038  0.4680121886869828   T   T   T
  0.2501882154446490  0.2499120630329881  0.4678666957660873   T   T   T
  0.2506918054340868  0.4998581387525821  0.4682298390862617   T   T   T
  0.2501562152589519  0.7493539235951290  0.4681345904866419   T   T   T
  0.4999984740906433  0.9998666105860073  0.4679326699283624   T   T   T
  0.5002357382303810  0.2504831273387626  0.4680849328569536   T   T   T
  0.5006437581191068  0.4998646013105227  0.4681533145334584   T   T   T
  0.4999203163333643  0.7492921861053800  0.4680650638138167   T   T   T
  0.7501096166274795  0.9999435409643138  0.4679789240092170   T   T   T
  0.7500433283909425  0.2504126510038732  0.4680163081465592   T   T   T
  0.7497190146198736  0.4997892243782792  0.4682661865890902   T   T   T
  0.7500808882609503  0.7493399449442391  0.4680980868465788   T   T   T
  0.1249740342952291  0.1244369540060589  0.5327069310952602   T   T   T
  0.1253478082518954  0.3743092008609963  0.5325982373565887   T   T   T
  0.1252182355572888  0.6246868670494953  0.5328194545219622   T   T   T
  0.1249453446946527  0.8743870764728112  0.5329044273013422   T   T   T
  0.3746574662322968  0.1244932202751308  0.5324770457085921   T   T   T
  0.3759494788338258  0.3754757062607245  0.5332141153671117   T   T   T
  0.3769463565386732  0.6232507782874066  0.5337202210865011   T   T   T
  0.3748807389997567  0.8742710700474324  0.5327499799768063   T   T   T
  0.6253546148551391  0.1250464835492550  0.5326021993816863   T   T   T
  0.6255002479208902  0.3759244838200296  0.5337408828862261   T   T   T
  0.6249195138748291  0.6246672738720563  0.5335090854151512   T   T   T
  0.6249182156596462  0.8749972729025446  0.5325811217547863   T   T   T
  0.8750307814571265  0.1250057827450052  0.5328222146703656   T   T   T
  0.8750890873796562  0.3745495323786287  0.5331783603039033   T   T   T
  0.8732052169585564  0.6234590967426400  0.5337333881776533   T   T   T
  0.8750098230681954  0.8746602366500028  0.5327969618099035   T   T   T
  0.9999804036618593  0.9995514625483934  0.5979713819358206   T   T   T
  0.0012569626614414  0.2493369370883953  0.5979520191432351   T   T   T
  0.0018935667897459  0.4992030929759529  0.5979327787680424   T   T   T
  0.0002243456283931  0.7498464364922628  0.5980359599049750   T   T   T
  0.2501492059670646  0.9994532165332184  0.5978792150848298   T   T   T
  0.2497877745940108  0.2491534092089349  0.5979254787425596   T   T   T
  0.2488912228945210  0.4990740316475151  0.5979740973472010   T   T   T
  0.2497367097293902  0.7496623957543717  0.5980679240299134   T   T   T
  0.5000203325215412  0.0000494496428345  0.5978377126554223   T   T   T
  0.4988275359892677  0.2477046229806888  0.5971775886497146   T   T   T
  0.4977052411784507  0.5019009476975269  0.6010146409654978   T   T   T
  0.5000863519934932  0.7521735665635186  0.5980324347262623   T   T   T
  0.7498210490140281  0.0001046548039346  0.5979019798196752   T   T   T
  0.7505386137466306  0.2469529272386501  0.5983250966714850   T   T   T
  0.7536740631359102  0.5057254133748605  0.5998969592076396   T   T   T
  0.7497537674983643  0.7532619007346324  0.5982512077348927   T   T   T
  0.6304227075527375  0.4227829419982887  0.6870670831595568   T   T   T
  0.5319781782497680  0.4683448366757966  0.6702965306903572   T   T   T
  0.6310591693250485  0.3822088643627385  0.7251577861243184   T   T   T
  0.7307573911981990  0.4188543616694676  0.6634628135390855   T   T   T
 
  0.00000000E+00  0.00000000E+00  0.00000000E+00
  0.00000000E+00  0.00000000E+00  0.00000000E+00
  0.00000000E+00  0.00000000E+00  0.00000000E+00
  0.00000000E+00  0.00000000E+00  0.00000000E+00
  0.00000000E+00  0.00000000E+00  0.00000000E+00
  0.00000000E+00  0.00000000E+00  0.00000000E+00
  0.00000000E+00  0.00000000E+00  0.00000000E+00
  0.00000000E+00  0.00000000E+00  0.00000000E+00
  0.00000000E+00  0.00000000E+00  0.00000000E+00
  0.00000000E+00  0.00000000E+00  0.00000000E+00
  0.00000000E+00  0.00000000E+00  0.00000000E+00
  0.00000000E+00  0.00000000E+00  0.00000000E+00
  0.00000000E+00  0.00000000E+00  0.00000000E+00
  0.00000000E+00  0.00000000E+00  0.00000000E+00
  0.00000000E+00  0.00000000E+00  0.00000000E+00
  0.00000000E+00  0.00000000E+00  0.00000000E+00
  0.00000000E+00  0.00000000E+00  0.00000000E+00
  0.00000000E+00  0.00000000E+00  0.00000000E+00
  0.00000000E+00  0.00000000E+00  0.00000000E+00
  0.00000000E+00  0.00000000E+00  0.00000000E+00
  0.00000000E+00  0.00000000E+00  0.00000000E+00
  0.00000000E+00  0.00000000E+00  0.00000000E+00
  0.00000000E+00  0.00000000E+00  0.00000000E+00
  0.00000000E+00  0.00000000E+00  0.00000000E+00
  0.00000000E+00  0.00000000E+00  0.00000000E+00
  0.00000000E+00  0.00000000E+00  0.00000000E+00
  0.00000000E+00  0.00000000E+00  0.00000000E+00
  0.00000000E+00  0.00000000E+00  0.00000000E+00
  0.00000000E+00  0.00000000E+00  0.00000000E+00
  0.00000000E+00  0.00000000E+00  0.00000000E+00
  0.00000000E+00  0.00000000E+00  0.00000000E+00
  0.00000000E+00  0.00000000E+00  0.00000000E+00
  0.00000000E+00  0.00000000E+00  0.00000000E+00
  0.00000000E+00  0.00000000E+00  0.00000000E+00
  0.00000000E+00  0.00000000E+00  0.00000000E+00
  0.00000000E+00  0.00000000E+00  0.00000000E+00
  0.00000000E+00  0.00000000E+00  0.00000000E+00
  0.00000000E+00  0.00000000E+00  0.00000000E+00
  0.00000000E+00  0.00000000E+00  0.00000000E+00
  0.00000000E+00  0.00000000E+00  0.00000000E+00
  0.00000000E+00  0.00000000E+00  0.00000000E+00
  0.00000000E+00  0.00000000E+00  0.00000000E+00
  0.00000000E+00  0.00000000E+00  0.00000000E+00
  0.00000000E+00  0.00000000E+00  0.00000000E+00
  0.00000000E+00  0.00000000E+00  0.00000000E+00
  0.00000000E+00  0.00000000E+00  0.00000000E+00
  0.00000000E+00  0.00000000E+00  0.00000000E+00
  0.00000000E+00  0.00000000E+00  0.00000000E+00
  0.00000000E+00  0.00000000E+00  0.00000000E+00
  0.00000000E+00  0.00000000E+00  0.00000000E+00
  0.00000000E+00  0.00000000E+00  0.00000000E+00
  0.00000000E+00  0.00000000E+00  0.00000000E+00
  0.00000000E+00  0.00000000E+00  0.00000000E+00
  0.00000000E+00  0.00000000E+00  0.00000000E+00
  0.00000000E+00  0.00000000E+00  0.00000000E+00
  0.00000000E+00  0.00000000E+00  0.00000000E+00
  0.00000000E+00  0.00000000E+00  0.00000000E+00
  0.00000000E+00  0.00000000E+00  0.00000000E+00
  0.00000000E+00  0.00000000E+00  0.00000000E+00
  0.00000000E+00  0.00000000E+00  0.00000000E+00
  0.00000000E+00  0.00000000E+00  0.00000000E+00
  0.00000000E+00  0.00000000E+00  0.00000000E+00
  0.00000000E+00  0.00000000E+00  0.00000000E+00
  0.00000000E+00  0.00000000E+00  0.00000000E+00
  0.00000000E+00  0.00000000E+00  0.00000000E+00
  0.00000000E+00  0.00000000E+00  0.00000000E+00
  0.00000000E+00  0.00000000E+00  0.00000000E+00
  0.00000000E+00  0.00000000E+00  0.00000000E+00
